POSCAR_pattern_circle
50
159.5	0	0
-79.75	138.13105190361796	0
0	0	14.874
Mo	S
4290	8580
Direct
0.006666666666666666	0.23333333333333334	0.25
0.013333333333333332	0.22666666666666666	0.75
0.006666666666666666	0.2533333333333333	0.25
0.013333333333333332	0.24666666666666665	0.75
0.006666666666666666	0.2733333333333333	0.25
0.013333333333333332	0.26666666666666666	0.75
0.006666666666666666	0.29333333333333333	0.25
0.013333333333333332	0.2866666666666667	0.75
0.006666666666666666	0.3133333333333333	0.25
0.013333333333333332	0.30666666666666664	0.75
0.006666666666666666	0.3333333333333333	0.25
0.013333333333333332	0.32666666666666666	0.75
0.006666666666666666	0.35333333333333333	0.25
0.013333333333333332	0.3466666666666667	0.75
0.006666666666666666	0.3733333333333333	0.25
0.013333333333333332	0.36666666666666664	0.75
0.006666666666666666	0.3933333333333333	0.25
0.013333333333333332	0.38666666666666666	0.75
0.006666666666666666	0.41333333333333333	0.25
0.013333333333333332	0.4066666666666667	0.75
0.006666666666666666	0.4333333333333333	0.25
0.013333333333333332	0.42666666666666664	0.75
0.006666666666666666	0.4533333333333333	0.25
0.013333333333333332	0.44666666666666666	0.75
0.006666666666666666	0.47333333333333333	0.25
0.013333333333333332	0.4666666666666667	0.75
0.006666666666666666	0.4933333333333333	0.25
0.013333333333333332	0.48666666666666664	0.75
0.006666666666666666	0.5133333333333333	0.25
0.013333333333333332	0.5066666666666667	0.75
0.006666666666666666	0.5333333333333333	0.25
0.013333333333333332	0.5266666666666667	0.75
0.006666666666666666	0.5533333333333333	0.25
0.013333333333333332	0.5466666666666667	0.75
0.006666666666666666	0.5733333333333334	0.25
0.013333333333333332	0.5666666666666668	0.75
0.006666666666666666	0.5933333333333333	0.25
0.013333333333333332	0.5866666666666667	0.75
0.006666666666666666	0.6133333333333333	0.25
0.013333333333333332	0.6066666666666667	0.75
0.006666666666666666	0.6333333333333333	0.25
0.013333333333333332	0.6266666666666667	0.75
0.006666666666666666	0.6533333333333333	0.25
0.013333333333333332	0.6466666666666667	0.75
0.006666666666666666	0.6733333333333333	0.25
0.013333333333333332	0.6666666666666667	0.75
0.006666666666666666	0.6933333333333334	0.25
0.013333333333333332	0.6866666666666668	0.75
0.006666666666666666	0.7133333333333334	0.25
0.013333333333333332	0.7066666666666668	0.75
0.006666666666666666	0.7333333333333333	0.25
0.013333333333333332	0.7266666666666667	0.75
0.006666666666666666	0.7533333333333333	0.25
0.013333333333333332	0.7466666666666667	0.75
0.006666666666666666	0.7733333333333333	0.25
0.013333333333333332	0.7666666666666667	0.75
0.006666666666666666	0.7933333333333333	0.25
0.013333333333333332	0.7866666666666667	0.75
0.006666666666666666	0.8133333333333334	0.25
0.013333333333333332	0.8066666666666668	0.75
0.006666666666666666	0.8333333333333334	0.25
0.013333333333333332	0.8266666666666668	0.75
0.006666666666666666	0.8533333333333333	0.25
0.013333333333333332	0.8466666666666667	0.75
0.006666666666666666	0.8733333333333333	0.25
0.013333333333333332	0.8666666666666667	0.75
0.006666666666666666	0.8933333333333333	0.25
0.013333333333333332	0.8866666666666667	0.75
0.006666666666666666	0.9133333333333333	0.25
0.013333333333333332	0.9066666666666667	0.75
0.006666666666666666	0.9333333333333333	0.25
0.013333333333333332	0.9266666666666667	0.75
0.006666666666666666	0.9533333333333334	0.25
0.013333333333333332	0.9466666666666668	0.75
0.006666666666666666	0.9733333333333333	0.25
0.013333333333333332	0.9666666666666667	0.75
0.006666666666666666	0.9933333333333333	0.25
0.013333333333333332	0.9866666666666667	0.75
0.026666666666666665	0.2533333333333333	0.25
0.03333333333333333	0.24666666666666665	0.75
0.026666666666666665	0.2733333333333333	0.25
0.03333333333333333	0.26666666666666666	0.75
0.026666666666666665	0.29333333333333333	0.25
0.03333333333333333	0.2866666666666667	0.75
0.026666666666666665	0.3133333333333333	0.25
0.03333333333333333	0.30666666666666664	0.75
0.026666666666666665	0.3333333333333333	0.25
0.03333333333333333	0.32666666666666666	0.75
0.026666666666666665	0.35333333333333333	0.25
0.03333333333333333	0.3466666666666667	0.75
0.026666666666666665	0.3733333333333333	0.25
0.03333333333333333	0.36666666666666664	0.75
0.026666666666666665	0.3933333333333333	0.25
0.03333333333333333	0.38666666666666666	0.75
0.026666666666666665	0.41333333333333333	0.25
0.03333333333333333	0.4066666666666667	0.75
0.026666666666666665	0.4333333333333333	0.25
0.03333333333333333	0.42666666666666664	0.75
0.026666666666666665	0.4533333333333333	0.25
0.03333333333333333	0.44666666666666666	0.75
0.026666666666666665	0.47333333333333333	0.25
0.03333333333333333	0.4666666666666667	0.75
0.026666666666666665	0.4933333333333333	0.25
0.03333333333333333	0.48666666666666664	0.75
0.026666666666666665	0.5133333333333333	0.25
0.03333333333333333	0.5066666666666667	0.75
0.026666666666666665	0.5333333333333333	0.25
0.03333333333333333	0.5266666666666667	0.75
0.026666666666666665	0.5533333333333333	0.25
0.03333333333333333	0.5466666666666667	0.75
0.026666666666666665	0.5733333333333334	0.25
0.03333333333333333	0.5666666666666668	0.75
0.026666666666666665	0.5933333333333333	0.25
0.03333333333333333	0.5866666666666667	0.75
0.026666666666666665	0.6133333333333333	0.25
0.03333333333333333	0.6066666666666667	0.75
0.026666666666666665	0.6333333333333333	0.25
0.03333333333333333	0.6266666666666667	0.75
0.026666666666666665	0.6533333333333333	0.25
0.03333333333333333	0.6466666666666667	0.75
0.026666666666666665	0.6733333333333333	0.25
0.03333333333333333	0.6666666666666667	0.75
0.026666666666666665	0.6933333333333334	0.25
0.03333333333333333	0.6866666666666668	0.75
0.026666666666666665	0.7133333333333334	0.25
0.03333333333333333	0.7066666666666668	0.75
0.026666666666666665	0.7333333333333333	0.25
0.03333333333333333	0.7266666666666667	0.75
0.026666666666666665	0.7533333333333333	0.25
0.03333333333333333	0.7466666666666667	0.75
0.026666666666666665	0.7733333333333333	0.25
0.03333333333333333	0.7666666666666667	0.75
0.026666666666666665	0.7933333333333333	0.25
0.03333333333333333	0.7866666666666667	0.75
0.026666666666666665	0.8133333333333334	0.25
0.03333333333333333	0.8066666666666668	0.75
0.026666666666666665	0.8333333333333334	0.25
0.03333333333333333	0.8266666666666668	0.75
0.026666666666666665	0.8533333333333333	0.25
0.03333333333333333	0.8466666666666667	0.75
0.026666666666666665	0.8733333333333333	0.25
0.03333333333333333	0.8666666666666667	0.75
0.026666666666666665	0.8933333333333333	0.25
0.03333333333333333	0.8866666666666667	0.75
0.026666666666666665	0.9133333333333333	0.25
0.03333333333333333	0.9066666666666667	0.75
0.026666666666666665	0.9333333333333333	0.25
0.03333333333333333	0.9266666666666667	0.75
0.026666666666666665	0.9533333333333334	0.25
0.03333333333333333	0.9466666666666668	0.75
0.026666666666666665	0.9733333333333333	0.25
0.03333333333333333	0.9666666666666667	0.75
0.026666666666666665	0.9933333333333333	0.25
0.03333333333333333	0.9866666666666667	0.75
0.04666666666666667	0.29333333333333333	0.25
0.05333333333333333	0.2866666666666667	0.75
0.04666666666666667	0.3133333333333333	0.25
0.05333333333333333	0.30666666666666664	0.75
0.04666666666666667	0.3333333333333333	0.25
0.05333333333333333	0.32666666666666666	0.75
0.04666666666666667	0.35333333333333333	0.25
0.05333333333333333	0.3466666666666667	0.75
0.04666666666666667	0.3733333333333333	0.25
0.05333333333333333	0.36666666666666664	0.75
0.04666666666666667	0.3933333333333333	0.25
0.05333333333333333	0.38666666666666666	0.75
0.04666666666666667	0.41333333333333333	0.25
0.05333333333333333	0.4066666666666667	0.75
0.04666666666666667	0.4333333333333333	0.25
0.05333333333333333	0.42666666666666664	0.75
0.04666666666666667	0.4533333333333333	0.25
0.05333333333333333	0.44666666666666666	0.75
0.04666666666666667	0.47333333333333333	0.25
0.05333333333333333	0.4666666666666667	0.75
0.04666666666666667	0.4933333333333333	0.25
0.05333333333333333	0.48666666666666664	0.75
0.04666666666666667	0.5133333333333333	0.25
0.05333333333333333	0.5066666666666667	0.75
0.04666666666666667	0.5333333333333333	0.25
0.05333333333333333	0.5266666666666667	0.75
0.04666666666666667	0.5533333333333333	0.25
0.05333333333333333	0.5466666666666667	0.75
0.04666666666666667	0.5733333333333334	0.25
0.05333333333333333	0.5666666666666668	0.75
0.04666666666666667	0.5933333333333333	0.25
0.05333333333333333	0.5866666666666667	0.75
0.04666666666666667	0.6133333333333333	0.25
0.05333333333333333	0.6066666666666667	0.75
0.04666666666666667	0.6333333333333333	0.25
0.05333333333333333	0.6266666666666667	0.75
0.04666666666666667	0.6533333333333333	0.25
0.05333333333333333	0.6466666666666667	0.75
0.04666666666666667	0.6733333333333333	0.25
0.05333333333333333	0.6666666666666667	0.75
0.04666666666666667	0.6933333333333334	0.25
0.05333333333333333	0.6866666666666668	0.75
0.04666666666666667	0.7133333333333334	0.25
0.05333333333333333	0.7066666666666668	0.75
0.04666666666666667	0.7333333333333333	0.25
0.05333333333333333	0.7266666666666667	0.75
0.04666666666666667	0.7533333333333333	0.25
0.05333333333333333	0.7466666666666667	0.75
0.04666666666666667	0.7733333333333333	0.25
0.05333333333333333	0.7666666666666667	0.75
0.04666666666666667	0.7933333333333333	0.25
0.05333333333333333	0.7866666666666667	0.75
0.04666666666666667	0.8133333333333334	0.25
0.05333333333333333	0.8066666666666668	0.75
0.04666666666666667	0.8333333333333334	0.25
0.05333333333333333	0.8266666666666668	0.75
0.04666666666666667	0.8533333333333333	0.25
0.05333333333333333	0.8466666666666667	0.75
0.04666666666666667	0.8733333333333333	0.25
0.05333333333333333	0.8666666666666667	0.75
0.04666666666666667	0.8933333333333333	0.25
0.05333333333333333	0.8866666666666667	0.75
0.04666666666666667	0.9133333333333333	0.25
0.05333333333333333	0.9066666666666667	0.75
0.04666666666666667	0.9333333333333333	0.25
0.05333333333333333	0.9266666666666667	0.75
0.04666666666666667	0.9533333333333334	0.25
0.05333333333333333	0.9466666666666668	0.75
0.04666666666666667	0.9733333333333333	0.25
0.05333333333333333	0.9666666666666667	0.75
0.04666666666666667	0.9933333333333333	0.25
0.05333333333333333	0.9866666666666667	0.75
0.06666666666666667	0.3133333333333333	0.25
0.07333333333333333	0.30666666666666664	0.75
0.06666666666666667	0.3333333333333333	0.25
0.07333333333333333	0.32666666666666666	0.75
0.06666666666666667	0.35333333333333333	0.25
0.07333333333333333	0.3466666666666667	0.75
0.06666666666666667	0.3733333333333333	0.25
0.07333333333333333	0.36666666666666664	0.75
0.06666666666666667	0.3933333333333333	0.25
0.07333333333333333	0.38666666666666666	0.75
0.06666666666666667	0.41333333333333333	0.25
0.07333333333333333	0.4066666666666667	0.75
0.06666666666666667	0.4333333333333333	0.25
0.07333333333333333	0.42666666666666664	0.75
0.06666666666666667	0.4533333333333333	0.25
0.07333333333333333	0.44666666666666666	0.75
0.06666666666666667	0.47333333333333333	0.25
0.07333333333333333	0.4666666666666667	0.75
0.06666666666666667	0.4933333333333333	0.25
0.07333333333333333	0.48666666666666664	0.75
0.06666666666666667	0.5133333333333333	0.25
0.07333333333333333	0.5066666666666667	0.75
0.06666666666666667	0.5333333333333333	0.25
0.07333333333333333	0.5266666666666667	0.75
0.06666666666666667	0.5533333333333333	0.25
0.07333333333333333	0.5466666666666667	0.75
0.06666666666666667	0.5733333333333334	0.25
0.07333333333333333	0.5666666666666668	0.75
0.06666666666666667	0.5933333333333333	0.25
0.07333333333333333	0.5866666666666667	0.75
0.06666666666666667	0.6133333333333333	0.25
0.07333333333333333	0.6066666666666667	0.75
0.06666666666666667	0.6333333333333333	0.25
0.07333333333333333	0.6266666666666667	0.75
0.06666666666666667	0.6533333333333333	0.25
0.07333333333333333	0.6466666666666667	0.75
0.06666666666666667	0.6733333333333333	0.25
0.07333333333333333	0.6666666666666667	0.75
0.06666666666666667	0.6933333333333334	0.25
0.07333333333333333	0.6866666666666668	0.75
0.06666666666666667	0.7133333333333334	0.25
0.07333333333333333	0.7066666666666668	0.75
0.06666666666666667	0.7333333333333333	0.25
0.07333333333333333	0.7266666666666667	0.75
0.06666666666666667	0.7533333333333333	0.25
0.07333333333333333	0.7466666666666667	0.75
0.06666666666666667	0.7733333333333333	0.25
0.07333333333333333	0.7666666666666667	0.75
0.06666666666666667	0.7933333333333333	0.25
0.07333333333333333	0.7866666666666667	0.75
0.06666666666666667	0.8133333333333334	0.25
0.07333333333333333	0.8066666666666668	0.75
0.06666666666666667	0.8333333333333334	0.25
0.07333333333333333	0.8266666666666668	0.75
0.06666666666666667	0.8533333333333333	0.25
0.07333333333333333	0.8466666666666667	0.75
0.06666666666666667	0.8733333333333333	0.25
0.07333333333333333	0.8666666666666667	0.75
0.06666666666666667	0.8933333333333333	0.25
0.07333333333333333	0.8866666666666667	0.75
0.06666666666666667	0.9133333333333333	0.25
0.07333333333333333	0.9066666666666667	0.75
0.06666666666666667	0.9333333333333333	0.25
0.07333333333333333	0.9266666666666667	0.75
0.06666666666666667	0.9533333333333334	0.25
0.07333333333333333	0.9466666666666668	0.75
0.06666666666666667	0.9733333333333333	0.25
0.07333333333333333	0.9666666666666667	0.75
0.06666666666666667	0.9933333333333333	0.25
0.07333333333333333	0.9866666666666667	0.75
0.08666666666666667	0.3333333333333333	0.25
0.09333333333333334	0.32666666666666666	0.75
0.08666666666666667	0.35333333333333333	0.25
0.09333333333333334	0.3466666666666667	0.75
0.08666666666666667	0.3733333333333333	0.25
0.09333333333333334	0.36666666666666664	0.75
0.08666666666666667	0.3933333333333333	0.25
0.09333333333333334	0.38666666666666666	0.75
0.08666666666666667	0.41333333333333333	0.25
0.09333333333333334	0.4066666666666667	0.75
0.08666666666666667	0.4333333333333333	0.25
0.09333333333333334	0.42666666666666664	0.75
0.08666666666666667	0.4533333333333333	0.25
0.09333333333333334	0.44666666666666666	0.75
0.08666666666666667	0.47333333333333333	0.25
0.09333333333333334	0.4666666666666667	0.75
0.08666666666666667	0.4933333333333333	0.25
0.09333333333333334	0.48666666666666664	0.75
0.08666666666666667	0.5133333333333333	0.25
0.09333333333333334	0.5066666666666667	0.75
0.08666666666666667	0.5333333333333333	0.25
0.09333333333333334	0.5266666666666667	0.75
0.08666666666666667	0.5533333333333333	0.25
0.09333333333333334	0.5466666666666667	0.75
0.08666666666666667	0.5733333333333334	0.25
0.09333333333333334	0.5666666666666668	0.75
0.08666666666666667	0.5933333333333333	0.25
0.09333333333333334	0.5866666666666667	0.75
0.08666666666666667	0.6133333333333333	0.25
0.09333333333333334	0.6066666666666667	0.75
0.08666666666666667	0.6333333333333333	0.25
0.09333333333333334	0.6266666666666667	0.75
0.08666666666666667	0.6533333333333333	0.25
0.09333333333333334	0.6466666666666667	0.75
0.08666666666666667	0.6733333333333333	0.25
0.09333333333333334	0.6666666666666667	0.75
0.08666666666666667	0.6933333333333334	0.25
0.09333333333333334	0.6866666666666668	0.75
0.08666666666666667	0.7133333333333334	0.25
0.09333333333333334	0.7066666666666668	0.75
0.08666666666666667	0.7333333333333333	0.25
0.09333333333333334	0.7266666666666667	0.75
0.08666666666666667	0.7533333333333333	0.25
0.09333333333333334	0.7466666666666667	0.75
0.08666666666666667	0.7733333333333333	0.25
0.09333333333333334	0.7666666666666667	0.75
0.08666666666666667	0.7933333333333333	0.25
0.09333333333333334	0.7866666666666667	0.75
0.08666666666666667	0.8133333333333334	0.25
0.09333333333333334	0.8066666666666668	0.75
0.08666666666666667	0.8333333333333334	0.25
0.09333333333333334	0.8266666666666668	0.75
0.08666666666666667	0.8533333333333333	0.25
0.09333333333333334	0.8466666666666667	0.75
0.08666666666666667	0.8733333333333333	0.25
0.09333333333333334	0.8666666666666667	0.75
0.08666666666666667	0.8933333333333333	0.25
0.09333333333333334	0.8866666666666667	0.75
0.08666666666666667	0.9133333333333333	0.25
0.09333333333333334	0.9066666666666667	0.75
0.08666666666666667	0.9333333333333333	0.25
0.09333333333333334	0.9266666666666667	0.75
0.08666666666666667	0.9533333333333334	0.25
0.09333333333333334	0.9466666666666668	0.75
0.08666666666666667	0.9733333333333333	0.25
0.09333333333333334	0.9666666666666667	0.75
0.08666666666666667	0.9933333333333333	0.25
0.09333333333333334	0.9866666666666667	0.75
0.10666666666666667	0.35333333333333333	0.25
0.11333333333333334	0.3466666666666667	0.75
0.10666666666666667	0.3733333333333333	0.25
0.11333333333333334	0.36666666666666664	0.75
0.10666666666666667	0.3933333333333333	0.25
0.11333333333333334	0.38666666666666666	0.75
0.10666666666666667	0.41333333333333333	0.25
0.11333333333333334	0.4066666666666667	0.75
0.10666666666666667	0.4333333333333333	0.25
0.11333333333333334	0.42666666666666664	0.75
0.10666666666666667	0.4533333333333333	0.25
0.11333333333333334	0.44666666666666666	0.75
0.10666666666666667	0.47333333333333333	0.25
0.11333333333333334	0.4666666666666667	0.75
0.10666666666666667	0.4933333333333333	0.25
0.11333333333333334	0.48666666666666664	0.75
0.10666666666666667	0.5133333333333333	0.25
0.11333333333333334	0.5066666666666667	0.75
0.10666666666666667	0.5333333333333333	0.25
0.11333333333333334	0.5266666666666667	0.75
0.10666666666666667	0.5533333333333333	0.25
0.11333333333333334	0.5466666666666667	0.75
0.10666666666666667	0.5733333333333334	0.25
0.11333333333333334	0.5666666666666668	0.75
0.10666666666666667	0.5933333333333333	0.25
0.11333333333333334	0.5866666666666667	0.75
0.10666666666666667	0.6133333333333333	0.25
0.11333333333333334	0.6066666666666667	0.75
0.10666666666666667	0.6333333333333333	0.25
0.11333333333333334	0.6266666666666667	0.75
0.10666666666666667	0.6533333333333333	0.25
0.11333333333333334	0.6466666666666667	0.75
0.10666666666666667	0.6733333333333333	0.25
0.11333333333333334	0.6666666666666667	0.75
0.10666666666666667	0.6933333333333334	0.25
0.11333333333333334	0.6866666666666668	0.75
0.10666666666666667	0.7133333333333334	0.25
0.11333333333333334	0.7066666666666668	0.75
0.10666666666666667	0.7333333333333333	0.25
0.11333333333333334	0.7266666666666667	0.75
0.10666666666666667	0.7533333333333333	0.25
0.11333333333333334	0.7466666666666667	0.75
0.10666666666666667	0.7733333333333333	0.25
0.11333333333333334	0.7666666666666667	0.75
0.10666666666666667	0.7933333333333333	0.25
0.11333333333333334	0.7866666666666667	0.75
0.10666666666666667	0.8133333333333334	0.25
0.11333333333333334	0.8066666666666668	0.75
0.10666666666666667	0.8333333333333334	0.25
0.11333333333333334	0.8266666666666668	0.75
0.10666666666666667	0.8533333333333333	0.25
0.11333333333333334	0.8466666666666667	0.75
0.10666666666666667	0.8733333333333333	0.25
0.11333333333333334	0.8666666666666667	0.75
0.10666666666666667	0.8933333333333333	0.25
0.11333333333333334	0.8866666666666667	0.75
0.10666666666666667	0.9133333333333333	0.25
0.11333333333333334	0.9066666666666667	0.75
0.10666666666666667	0.9333333333333333	0.25
0.11333333333333334	0.9266666666666667	0.75
0.10666666666666667	0.9533333333333334	0.25
0.11333333333333334	0.9466666666666668	0.75
0.10666666666666667	0.9733333333333333	0.25
0.11333333333333334	0.9666666666666667	0.75
0.10666666666666667	0.9933333333333333	0.25
0.11333333333333334	0.9866666666666667	0.75
0.12666666666666665	0.3733333333333333	0.25
0.13333333333333333	0.36666666666666664	0.75
0.12666666666666665	0.3933333333333333	0.25
0.13333333333333333	0.38666666666666666	0.75
0.12666666666666665	0.41333333333333333	0.25
0.13333333333333333	0.4066666666666667	0.75
0.12666666666666665	0.4333333333333333	0.25
0.13333333333333333	0.42666666666666664	0.75
0.12666666666666665	0.4533333333333333	0.25
0.13333333333333333	0.44666666666666666	0.75
0.12666666666666665	0.47333333333333333	0.25
0.13333333333333333	0.4666666666666667	0.75
0.12666666666666665	0.4933333333333333	0.25
0.13333333333333333	0.48666666666666664	0.75
0.12666666666666665	0.5133333333333333	0.25
0.13333333333333333	0.5066666666666667	0.75
0.12666666666666665	0.5333333333333333	0.25
0.13333333333333333	0.5266666666666667	0.75
0.12666666666666665	0.5533333333333333	0.25
0.13333333333333333	0.5466666666666667	0.75
0.12666666666666665	0.5733333333333334	0.25
0.13333333333333333	0.5666666666666668	0.75
0.12666666666666665	0.5933333333333333	0.25
0.13333333333333333	0.5866666666666667	0.75
0.12666666666666665	0.6133333333333333	0.25
0.13333333333333333	0.6066666666666667	0.75
0.12666666666666665	0.6333333333333333	0.25
0.13333333333333333	0.6266666666666667	0.75
0.12666666666666665	0.6533333333333333	0.25
0.13333333333333333	0.6466666666666667	0.75
0.12666666666666665	0.6733333333333333	0.25
0.13333333333333333	0.6666666666666667	0.75
0.12666666666666665	0.6933333333333334	0.25
0.13333333333333333	0.6866666666666668	0.75
0.12666666666666665	0.7133333333333334	0.25
0.13333333333333333	0.7066666666666668	0.75
0.12666666666666665	0.7333333333333333	0.25
0.13333333333333333	0.7266666666666667	0.75
0.12666666666666665	0.7533333333333333	0.25
0.13333333333333333	0.7466666666666667	0.75
0.12666666666666665	0.7733333333333333	0.25
0.13333333333333333	0.7666666666666667	0.75
0.12666666666666665	0.7933333333333333	0.25
0.13333333333333333	0.7866666666666667	0.75
0.12666666666666665	0.8133333333333334	0.25
0.13333333333333333	0.8066666666666668	0.75
0.12666666666666665	0.8333333333333334	0.25
0.13333333333333333	0.8266666666666668	0.75
0.12666666666666665	0.8533333333333333	0.25
0.13333333333333333	0.8466666666666667	0.75
0.12666666666666665	0.8733333333333333	0.25
0.13333333333333333	0.8666666666666667	0.75
0.12666666666666665	0.8933333333333333	0.25
0.13333333333333333	0.8866666666666667	0.75
0.12666666666666665	0.9133333333333333	0.25
0.13333333333333333	0.9066666666666667	0.75
0.12666666666666665	0.9333333333333333	0.25
0.13333333333333333	0.9266666666666667	0.75
0.12666666666666665	0.9533333333333334	0.25
0.13333333333333333	0.9466666666666668	0.75
0.12666666666666665	0.9733333333333333	0.25
0.13333333333333333	0.9666666666666667	0.75
0.12666666666666665	0.9933333333333333	0.25
0.13333333333333333	0.9866666666666667	0.75
0.14666666666666667	0.3933333333333333	0.25
0.15333333333333335	0.38666666666666666	0.75
0.14666666666666667	0.41333333333333333	0.25
0.15333333333333335	0.4066666666666667	0.75
0.14666666666666667	0.4333333333333333	0.25
0.15333333333333335	0.42666666666666664	0.75
0.14666666666666667	0.4533333333333333	0.25
0.15333333333333335	0.44666666666666666	0.75
0.14666666666666667	0.47333333333333333	0.25
0.15333333333333335	0.4666666666666667	0.75
0.14666666666666667	0.4933333333333333	0.25
0.15333333333333335	0.48666666666666664	0.75
0.14666666666666667	0.5133333333333333	0.25
0.15333333333333335	0.5066666666666667	0.75
0.14666666666666667	0.5333333333333333	0.25
0.15333333333333335	0.5266666666666667	0.75
0.14666666666666667	0.5533333333333333	0.25
0.15333333333333335	0.5466666666666667	0.75
0.14666666666666667	0.5733333333333334	0.25
0.15333333333333335	0.5666666666666668	0.75
0.14666666666666667	0.5933333333333333	0.25
0.15333333333333335	0.5866666666666667	0.75
0.14666666666666667	0.6133333333333333	0.25
0.15333333333333335	0.6066666666666667	0.75
0.14666666666666667	0.6333333333333333	0.25
0.15333333333333335	0.6266666666666667	0.75
0.14666666666666667	0.6533333333333333	0.25
0.15333333333333335	0.6466666666666667	0.75
0.14666666666666667	0.6733333333333333	0.25
0.15333333333333335	0.6666666666666667	0.75
0.14666666666666667	0.6933333333333334	0.25
0.15333333333333335	0.6866666666666668	0.75
0.14666666666666667	0.7133333333333334	0.25
0.15333333333333335	0.7066666666666668	0.75
0.14666666666666667	0.7333333333333333	0.25
0.15333333333333335	0.7266666666666667	0.75
0.14666666666666667	0.7533333333333333	0.25
0.15333333333333335	0.7466666666666667	0.75
0.14666666666666667	0.7733333333333333	0.25
0.15333333333333335	0.7666666666666667	0.75
0.14666666666666667	0.7933333333333333	0.25
0.15333333333333335	0.7866666666666667	0.75
0.14666666666666667	0.8133333333333334	0.25
0.15333333333333335	0.8066666666666668	0.75
0.14666666666666667	0.8333333333333334	0.25
0.15333333333333335	0.8266666666666668	0.75
0.14666666666666667	0.8533333333333333	0.25
0.15333333333333335	0.8466666666666667	0.75
0.14666666666666667	0.8733333333333333	0.25
0.15333333333333335	0.8666666666666667	0.75
0.14666666666666667	0.8933333333333333	0.25
0.15333333333333335	0.8866666666666667	0.75
0.14666666666666667	0.9133333333333333	0.25
0.15333333333333335	0.9066666666666667	0.75
0.14666666666666667	0.9333333333333333	0.25
0.15333333333333335	0.9266666666666667	0.75
0.14666666666666667	0.9533333333333334	0.25
0.15333333333333335	0.9466666666666668	0.75
0.14666666666666667	0.9733333333333333	0.25
0.15333333333333335	0.9666666666666667	0.75
0.14666666666666667	0.9933333333333333	0.25
0.15333333333333335	0.9866666666666667	0.75
0.16666666666666666	0.3933333333333333	0.25
0.17333333333333334	0.38666666666666666	0.75
0.16666666666666666	0.41333333333333333	0.25
0.17333333333333334	0.4066666666666667	0.75
0.16666666666666666	0.4333333333333333	0.25
0.17333333333333334	0.42666666666666664	0.75
0.16666666666666666	0.4533333333333333	0.25
0.17333333333333334	0.44666666666666666	0.75
0.16666666666666666	0.47333333333333333	0.25
0.17333333333333334	0.4666666666666667	0.75
0.16666666666666666	0.4933333333333333	0.25
0.17333333333333334	0.48666666666666664	0.75
0.16666666666666666	0.5133333333333333	0.25
0.17333333333333334	0.5066666666666667	0.75
0.16666666666666666	0.5333333333333333	0.25
0.17333333333333334	0.5266666666666667	0.75
0.16666666666666666	0.5533333333333333	0.25
0.17333333333333334	0.5466666666666667	0.75
0.16666666666666666	0.5733333333333334	0.25
0.17333333333333334	0.5666666666666668	0.75
0.16666666666666666	0.5933333333333333	0.25
0.17333333333333334	0.5866666666666667	0.75
0.16666666666666666	0.6133333333333333	0.25
0.17333333333333334	0.6066666666666667	0.75
0.16666666666666666	0.6333333333333333	0.25
0.17333333333333334	0.6266666666666667	0.75
0.16666666666666666	0.6533333333333333	0.25
0.17333333333333334	0.6466666666666667	0.75
0.16666666666666666	0.6733333333333333	0.25
0.17333333333333334	0.6666666666666667	0.75
0.16666666666666666	0.6933333333333334	0.25
0.17333333333333334	0.6866666666666668	0.75
0.16666666666666666	0.7133333333333334	0.25
0.17333333333333334	0.7066666666666668	0.75
0.16666666666666666	0.7333333333333333	0.25
0.17333333333333334	0.7266666666666667	0.75
0.16666666666666666	0.7533333333333333	0.25
0.17333333333333334	0.7466666666666667	0.75
0.16666666666666666	0.7733333333333333	0.25
0.17333333333333334	0.7666666666666667	0.75
0.16666666666666666	0.7933333333333333	0.25
0.17333333333333334	0.7866666666666667	0.75
0.16666666666666666	0.8133333333333334	0.25
0.17333333333333334	0.8066666666666668	0.75
0.16666666666666666	0.8333333333333334	0.25
0.17333333333333334	0.8266666666666668	0.75
0.16666666666666666	0.8533333333333333	0.25
0.17333333333333334	0.8466666666666667	0.75
0.16666666666666666	0.8733333333333333	0.25
0.17333333333333334	0.8666666666666667	0.75
0.16666666666666666	0.8933333333333333	0.25
0.17333333333333334	0.8866666666666667	0.75
0.16666666666666666	0.9133333333333333	0.25
0.17333333333333334	0.9066666666666667	0.75
0.16666666666666666	0.9333333333333333	0.25
0.17333333333333334	0.9266666666666667	0.75
0.16666666666666666	0.9533333333333334	0.25
0.17333333333333334	0.9466666666666668	0.75
0.16666666666666666	0.9733333333333333	0.25
0.17333333333333334	0.9666666666666667	0.75
0.16666666666666666	0.9933333333333333	0.25
0.17333333333333334	0.9866666666666667	0.75
0.18666666666666665	0.41333333333333333	0.25
0.19333333333333333	0.4066666666666667	0.75
0.18666666666666665	0.4333333333333333	0.25
0.19333333333333333	0.42666666666666664	0.75
0.18666666666666665	0.4533333333333333	0.25
0.19333333333333333	0.44666666666666666	0.75
0.18666666666666665	0.47333333333333333	0.25
0.19333333333333333	0.4666666666666667	0.75
0.18666666666666665	0.4933333333333333	0.25
0.19333333333333333	0.48666666666666664	0.75
0.18666666666666665	0.5133333333333333	0.25
0.19333333333333333	0.5066666666666667	0.75
0.18666666666666665	0.5333333333333333	0.25
0.19333333333333333	0.5266666666666667	0.75
0.18666666666666665	0.5533333333333333	0.25
0.19333333333333333	0.5466666666666667	0.75
0.18666666666666665	0.5733333333333334	0.25
0.19333333333333333	0.5666666666666668	0.75
0.18666666666666665	0.5933333333333333	0.25
0.19333333333333333	0.5866666666666667	0.75
0.18666666666666665	0.6133333333333333	0.25
0.19333333333333333	0.6066666666666667	0.75
0.18666666666666665	0.6333333333333333	0.25
0.19333333333333333	0.6266666666666667	0.75
0.18666666666666665	0.6533333333333333	0.25
0.19333333333333333	0.6466666666666667	0.75
0.18666666666666665	0.6733333333333333	0.25
0.19333333333333333	0.6666666666666667	0.75
0.18666666666666665	0.6933333333333334	0.25
0.19333333333333333	0.6866666666666668	0.75
0.18666666666666665	0.7133333333333334	0.25
0.19333333333333333	0.7066666666666668	0.75
0.18666666666666665	0.7333333333333333	0.25
0.19333333333333333	0.7266666666666667	0.75
0.18666666666666665	0.7533333333333333	0.25
0.19333333333333333	0.7466666666666667	0.75
0.18666666666666665	0.7733333333333333	0.25
0.19333333333333333	0.7666666666666667	0.75
0.18666666666666665	0.7933333333333333	0.25
0.19333333333333333	0.7866666666666667	0.75
0.18666666666666665	0.8133333333333334	0.25
0.19333333333333333	0.8066666666666668	0.75
0.18666666666666665	0.8333333333333334	0.25
0.19333333333333333	0.8266666666666668	0.75
0.18666666666666665	0.8533333333333333	0.25
0.19333333333333333	0.8466666666666667	0.75
0.18666666666666665	0.8733333333333333	0.25
0.19333333333333333	0.8666666666666667	0.75
0.18666666666666665	0.8933333333333333	0.25
0.19333333333333333	0.8866666666666667	0.75
0.18666666666666665	0.9133333333333333	0.25
0.19333333333333333	0.9066666666666667	0.75
0.18666666666666665	0.9333333333333333	0.25
0.19333333333333333	0.9266666666666667	0.75
0.18666666666666665	0.9533333333333334	0.25
0.19333333333333333	0.9466666666666668	0.75