POSCAR_honeycomb
10
31.9	0	0
-15.95	27.62621038072359	0
0	0	1
Mo	S
100	100
Direct
0.03333333333333333	0.06666666666666667	0.5
0.03333333333333333	0.16666666666666669	0.5
0.03333333333333333	0.26666666666666666	0.5
0.03333333333333333	0.3666666666666667	0.5
0.03333333333333333	0.4666666666666667	0.5
0.03333333333333333	0.5666666666666667	0.5
0.03333333333333333	0.6666666666666667	0.5
0.03333333333333333	0.7666666666666667	0.5
0.03333333333333333	0.8666666666666667	0.5
0.03333333333333333	0.9666666666666667	0.5
0.13333333333333333	0.06666666666666667	0.5
0.13333333333333333	0.16666666666666669	0.5
0.13333333333333333	0.26666666666666666	0.5
0.13333333333333333	0.3666666666666667	0.5
0.13333333333333333	0.4666666666666667	0.5
0.13333333333333333	0.5666666666666667	0.5
0.13333333333333333	0.6666666666666667	0.5
0.13333333333333333	0.7666666666666667	0.5
0.13333333333333333	0.8666666666666667	0.5
0.13333333333333333	0.9666666666666667	0.5
0.23333333333333334	0.06666666666666667	0.5
0.23333333333333334	0.16666666666666669	0.5
0.23333333333333334	0.26666666666666666	0.5
0.23333333333333334	0.3666666666666667	0.5
0.23333333333333334	0.4666666666666667	0.5
0.23333333333333334	0.5666666666666667	0.5
0.23333333333333334	0.6666666666666667	0.5
0.23333333333333334	0.7666666666666667	0.5
0.23333333333333334	0.8666666666666667	0.5
0.23333333333333334	0.9666666666666667	0.5
0.33333333333333337	0.06666666666666667	0.5
0.33333333333333337	0.16666666666666669	0.5
0.33333333333333337	0.26666666666666666	0.5
0.33333333333333337	0.3666666666666667	0.5
0.33333333333333337	0.4666666666666667	0.5
0.33333333333333337	0.5666666666666667	0.5
0.33333333333333337	0.6666666666666667	0.5
0.33333333333333337	0.7666666666666667	0.5
0.33333333333333337	0.8666666666666667	0.5
0.33333333333333337	0.9666666666666667	0.5
0.43333333333333335	0.06666666666666667	0.5
0.43333333333333335	0.16666666666666669	0.5
0.43333333333333335	0.26666666666666666	0.5
0.43333333333333335	0.3666666666666667	0.5
0.43333333333333335	0.4666666666666667	0.5
0.43333333333333335	0.5666666666666667	0.5
0.43333333333333335	0.6666666666666667	0.5
0.43333333333333335	0.7666666666666667	0.5
0.43333333333333335	0.8666666666666667	0.5
0.43333333333333335	0.9666666666666667	0.5
0.5333333333333333	0.06666666666666667	0.5
0.5333333333333333	0.16666666666666669	0.5
0.5333333333333333	0.26666666666666666	0.5
0.5333333333333333	0.3666666666666667	0.5
0.5333333333333333	0.4666666666666667	0.5
0.5333333333333333	0.5666666666666667	0.5
0.5333333333333333	0.6666666666666667	0.5
0.5333333333333333	0.7666666666666667	0.5
0.5333333333333333	0.8666666666666667	0.5
0.5333333333333333	0.9666666666666667	0.5
0.6333333333333334	0.06666666666666667	0.5
0.6333333333333334	0.16666666666666669	0.5
0.6333333333333334	0.26666666666666666	0.5
0.6333333333333334	0.3666666666666667	0.5
0.6333333333333334	0.4666666666666667	0.5
0.6333333333333334	0.5666666666666667	0.5
0.6333333333333334	0.6666666666666667	0.5
0.6333333333333334	0.7666666666666667	0.5
0.6333333333333334	0.8666666666666667	0.5
0.6333333333333334	0.9666666666666667	0.5
0.7333333333333334	0.06666666666666667	0.5
0.7333333333333334	0.16666666666666669	0.5
0.7333333333333334	0.26666666666666666	0.5
0.7333333333333334	0.3666666666666667	0.5
0.7333333333333334	0.4666666666666667	0.5
0.7333333333333334	0.5666666666666667	0.5
0.7333333333333334	0.6666666666666667	0.5
0.7333333333333334	0.7666666666666667	0.5
0.7333333333333334	0.8666666666666667	0.5
0.7333333333333334	0.9666666666666667	0.5
0.8333333333333334	0.06666666666666667	0.5
0.8333333333333334	0.16666666666666669	0.5
0.8333333333333334	0.26666666666666666	0.5
0.8333333333333334	0.3666666666666667	0.5
0.8333333333333334	0.4666666666666667	0.5
0.8333333333333334	0.5666666666666667	0.5
0.8333333333333334	0.6666666666666667	0.5
0.8333333333333334	0.7666666666666667	0.5
0.8333333333333334	0.8666666666666667	0.5
0.8333333333333334	0.9666666666666667	0.5
0.9333333333333333	0.06666666666666667	0.5
0.9333333333333333	0.16666666666666669	0.5
0.9333333333333333	0.26666666666666666	0.5
0.9333333333333333	0.3666666666666667	0.5
0.9333333333333333	0.4666666666666667	0.5
0.9333333333333333	0.5666666666666667	0.5
0.9333333333333333	0.6666666666666667	0.5
0.9333333333333333	0.7666666666666667	0.5
0.9333333333333333	0.8666666666666667	0.5
0.9333333333333333	0.9666666666666667	0.5
0.06666666666666667	0.03333333333333333	0.5
0.06666666666666667	0.13333333333333333	0.5
0.06666666666666667	0.23333333333333334	0.5
0.06666666666666667	0.33333333333333337	0.5
0.06666666666666667	0.43333333333333335	0.5
0.06666666666666667	0.5333333333333333	0.5
0.06666666666666667	0.6333333333333334	0.5
0.06666666666666667	0.7333333333333334	0.5
0.06666666666666667	0.8333333333333334	0.5
0.06666666666666667	0.9333333333333333	0.5
0.16666666666666669	0.03333333333333333	0.5
0.16666666666666669	0.13333333333333333	0.5
0.16666666666666669	0.23333333333333334	0.5
0.16666666666666669	0.33333333333333337	0.5
0.16666666666666669	0.43333333333333335	0.5
0.16666666666666669	0.5333333333333333	0.5
0.16666666666666669	0.6333333333333334	0.5
0.16666666666666669	0.7333333333333334	0.5
0.16666666666666669	0.8333333333333334	0.5
0.16666666666666669	0.9333333333333333	0.5
0.26666666666666666	0.03333333333333333	0.5
0.26666666666666666	0.13333333333333333	0.5
0.26666666666666666	0.23333333333333334	0.5
0.26666666666666666	0.33333333333333337	0.5
0.26666666666666666	0.43333333333333335	0.5
0.26666666666666666	0.5333333333333333	0.5
0.26666666666666666	0.6333333333333334	0.5
0.26666666666666666	0.7333333333333334	0.5
0.26666666666666666	0.8333333333333334	0.5
0.26666666666666666	0.9333333333333333	0.5
0.3666666666666667	0.03333333333333333	0.5
0.3666666666666667	0.13333333333333333	0.5
0.3666666666666667	0.23333333333333334	0.5
0.3666666666666667	0.33333333333333337	0.5
0.3666666666666667	0.43333333333333335	0.5
0.3666666666666667	0.5333333333333333	0.5
0.3666666666666667	0.6333333333333334	0.5
0.3666666666666667	0.7333333333333334	0.5
0.3666666666666667	0.8333333333333334	0.5
0.3666666666666667	0.9333333333333333	0.5
0.4666666666666667	0.03333333333333333	0.5
0.4666666666666667	0.13333333333333333	0.5
0.4666666666666667	0.23333333333333334	0.5
0.4666666666666667	0.33333333333333337	0.5
0.4666666666666667	0.43333333333333335	0.5
0.4666666666666667	0.5333333333333333	0.5
0.4666666666666667	0.6333333333333334	0.5
0.4666666666666667	0.7333333333333334	0.5
0.4666666666666667	0.8333333333333334	0.5
0.4666666666666667	0.9333333333333333	0.5
0.5666666666666667	0.03333333333333333	0.5
0.5666666666666667	0.13333333333333333	0.5
0.5666666666666667	0.23333333333333334	0.5
0.5666666666666667	0.33333333333333337	0.5
0.5666666666666667	0.43333333333333335	0.5
0.5666666666666667	0.5333333333333333	0.5
0.5666666666666667	0.6333333333333334	0.5
0.5666666666666667	0.7333333333333334	0.5
0.5666666666666667	0.8333333333333334	0.5
0.5666666666666667	0.9333333333333333	0.5
0.6666666666666667	0.03333333333333333	0.5
0.6666666666666667	0.13333333333333333	0.5
0.6666666666666667	0.23333333333333334	0.5
0.6666666666666667	0.33333333333333337	0.5
0.6666666666666667	0.43333333333333335	0.5
0.6666666666666667	0.5333333333333333	0.5
0.6666666666666667	0.6333333333333334	0.5
0.6666666666666667	0.7333333333333334	0.5
0.6666666666666667	0.8333333333333334	0.5
0.6666666666666667	0.9333333333333333	0.5
0.7666666666666667	0.03333333333333333	0.5
0.7666666666666667	0.13333333333333333	0.5
0.7666666666666667	0.23333333333333334	0.5
0.7666666666666667	0.33333333333333337	0.5
0.7666666666666667	0.43333333333333335	0.5
0.7666666666666667	0.5333333333333333	0.5
0.7666666666666667	0.6333333333333334	0.5
0.7666666666666667	0.7333333333333334	0.5
0.7666666666666667	0.8333333333333334	0.5
0.7666666666666667	0.9333333333333333	0.5
0.8666666666666667	0.03333333333333333	0.5
0.8666666666666667	0.13333333333333333	0.5
0.8666666666666667	0.23333333333333334	0.5
0.8666666666666667	0.33333333333333337	0.5
0.8666666666666667	0.43333333333333335	0.5
0.8666666666666667	0.5333333333333333	0.5
0.8666666666666667	0.6333333333333334	0.5
0.8666666666666667	0.7333333333333334	0.5
0.8666666666666667	0.8333333333333334	0.5
0.8666666666666667	0.9333333333333333	0.5
0.9666666666666667	0.03333333333333333	0.5
0.9666666666666667	0.13333333333333333	0.5
0.9666666666666667	0.23333333333333334	0.5
0.9666666666666667	0.33333333333333337	0.5
0.9666666666666667	0.43333333333333335	0.5
0.9666666666666667	0.5333333333333333	0.5
0.9666666666666667	0.6333333333333334	0.5
0.9666666666666667	0.7333333333333334	0.5
0.9666666666666667	0.8333333333333334	0.5
0.9666666666666667	0.9333333333333333	0.5
