POSCAR_honeycomb_30
30
95.7	0	0
-47.85	82.87863114217078	0
0	0	1
Mo	S
900	900
Direct
0.01111111111111111	0.02222222222222222	0.5
0.01111111111111111	0.05555555555555555	0.5
0.01111111111111111	0.08888888888888888	0.5
0.01111111111111111	0.12222222222222223	0.5
0.01111111111111111	0.15555555555555556	0.5
0.01111111111111111	0.18888888888888888	0.5
0.01111111111111111	0.22222222222222224	0.5
0.01111111111111111	0.25555555555555554	0.5
0.01111111111111111	0.28888888888888886	0.5
0.01111111111111111	0.3222222222222222	0.5
0.01111111111111111	0.3555555555555555	0.5
0.01111111111111111	0.38888888888888884	0.5
0.01111111111111111	0.4222222222222222	0.5
0.01111111111111111	0.45555555555555555	0.5
0.01111111111111111	0.4888888888888889	0.5
0.01111111111111111	0.5222222222222223	0.5
0.01111111111111111	0.5555555555555556	0.5
0.01111111111111111	0.5888888888888889	0.5
0.01111111111111111	0.6222222222222222	0.5
0.01111111111111111	0.6555555555555556	0.5
0.01111111111111111	0.6888888888888889	0.5
0.01111111111111111	0.7222222222222222	0.5
0.01111111111111111	0.7555555555555555	0.5
0.01111111111111111	0.7888888888888889	0.5
0.01111111111111111	0.8222222222222223	0.5
0.01111111111111111	0.8555555555555556	0.5
0.01111111111111111	0.888888888888889	0.5
0.01111111111111111	0.9222222222222223	0.5
0.01111111111111111	0.9555555555555556	0.5
0.01111111111111111	0.9888888888888889	0.5
0.04444444444444444	0.02222222222222222	0.5
0.04444444444444444	0.05555555555555555	0.5
0.04444444444444444	0.08888888888888888	0.5
0.04444444444444444	0.12222222222222223	0.5
0.04444444444444444	0.15555555555555556	0.5
0.04444444444444444	0.18888888888888888	0.5
0.04444444444444444	0.22222222222222224	0.5
0.04444444444444444	0.25555555555555554	0.5
0.04444444444444444	0.28888888888888886	0.5
0.04444444444444444	0.3222222222222222	0.5
0.04444444444444444	0.3555555555555555	0.5
0.04444444444444444	0.38888888888888884	0.5
0.04444444444444444	0.4222222222222222	0.5
0.04444444444444444	0.45555555555555555	0.5
0.04444444444444444	0.4888888888888889	0.5
0.04444444444444444	0.5222222222222223	0.5
0.04444444444444444	0.5555555555555556	0.5
0.04444444444444444	0.5888888888888889	0.5
0.04444444444444444	0.6222222222222222	0.5
0.04444444444444444	0.6555555555555556	0.5
0.04444444444444444	0.6888888888888889	0.5
0.04444444444444444	0.7222222222222222	0.5
0.04444444444444444	0.7555555555555555	0.5
0.04444444444444444	0.7888888888888889	0.5
0.04444444444444444	0.8222222222222223	0.5
0.04444444444444444	0.8555555555555556	0.5
0.04444444444444444	0.888888888888889	0.5
0.04444444444444444	0.9222222222222223	0.5
0.04444444444444444	0.9555555555555556	0.5
0.04444444444444444	0.9888888888888889	0.5
0.07777777777777778	0.02222222222222222	0.5
0.07777777777777778	0.05555555555555555	0.5
0.07777777777777778	0.08888888888888888	0.5
0.07777777777777778	0.12222222222222223	0.5
0.07777777777777778	0.15555555555555556	0.5
0.07777777777777778	0.18888888888888888	0.5
0.07777777777777778	0.22222222222222224	0.5
0.07777777777777778	0.25555555555555554	0.5
0.07777777777777778	0.28888888888888886	0.5
0.07777777777777778	0.3222222222222222	0.5
0.07777777777777778	0.3555555555555555	0.5
0.07777777777777778	0.38888888888888884	0.5
0.07777777777777778	0.4222222222222222	0.5
0.07777777777777778	0.45555555555555555	0.5
0.07777777777777778	0.4888888888888889	0.5
0.07777777777777778	0.5222222222222223	0.5
0.07777777777777778	0.5555555555555556	0.5
0.07777777777777778	0.5888888888888889	0.5
0.07777777777777778	0.6222222222222222	0.5
0.07777777777777778	0.6555555555555556	0.5
0.07777777777777778	0.6888888888888889	0.5
0.07777777777777778	0.7222222222222222	0.5
0.07777777777777778	0.7555555555555555	0.5
0.07777777777777778	0.7888888888888889	0.5
0.07777777777777778	0.8222222222222223	0.5
0.07777777777777778	0.8555555555555556	0.5
0.07777777777777778	0.888888888888889	0.5
0.07777777777777778	0.9222222222222223	0.5
0.07777777777777778	0.9555555555555556	0.5
0.07777777777777778	0.9888888888888889	0.5
0.11111111111111112	0.02222222222222222	0.5
0.11111111111111112	0.05555555555555555	0.5
0.11111111111111112	0.08888888888888888	0.5
0.11111111111111112	0.12222222222222223	0.5
0.11111111111111112	0.15555555555555556	0.5
0.11111111111111112	0.18888888888888888	0.5
0.11111111111111112	0.22222222222222224	0.5
0.11111111111111112	0.25555555555555554	0.5
0.11111111111111112	0.28888888888888886	0.5
0.11111111111111112	0.3222222222222222	0.5
0.11111111111111112	0.3555555555555555	0.5
0.11111111111111112	0.38888888888888884	0.5
0.11111111111111112	0.4222222222222222	0.5
0.11111111111111112	0.45555555555555555	0.5
0.11111111111111112	0.4888888888888889	0.5
0.11111111111111112	0.5222222222222223	0.5
0.11111111111111112	0.5555555555555556	0.5
0.11111111111111112	0.5888888888888889	0.5
0.11111111111111112	0.6222222222222222	0.5
0.11111111111111112	0.6555555555555556	0.5
0.11111111111111112	0.6888888888888889	0.5
0.11111111111111112	0.7222222222222222	0.5
0.11111111111111112	0.7555555555555555	0.5
0.11111111111111112	0.7888888888888889	0.5
0.11111111111111112	0.8222222222222223	0.5
0.11111111111111112	0.8555555555555556	0.5
0.11111111111111112	0.888888888888889	0.5
0.11111111111111112	0.9222222222222223	0.5
0.11111111111111112	0.9555555555555556	0.5
0.11111111111111112	0.9888888888888889	0.5
0.14444444444444443	0.02222222222222222	0.5
0.14444444444444443	0.05555555555555555	0.5
0.14444444444444443	0.08888888888888888	0.5
0.14444444444444443	0.12222222222222223	0.5
0.14444444444444443	0.15555555555555556	0.5
0.14444444444444443	0.18888888888888888	0.5
0.14444444444444443	0.22222222222222224	0.5
0.14444444444444443	0.25555555555555554	0.5
0.14444444444444443	0.28888888888888886	0.5
0.14444444444444443	0.3222222222222222	0.5
0.14444444444444443	0.3555555555555555	0.5
0.14444444444444443	0.38888888888888884	0.5
0.14444444444444443	0.4222222222222222	0.5
0.14444444444444443	0.45555555555555555	0.5
0.14444444444444443	0.4888888888888889	0.5
0.14444444444444443	0.5222222222222223	0.5
0.14444444444444443	0.5555555555555556	0.5
0.14444444444444443	0.5888888888888889	0.5
0.14444444444444443	0.6222222222222222	0.5
0.14444444444444443	0.6555555555555556	0.5
0.14444444444444443	0.6888888888888889	0.5
0.14444444444444443	0.7222222222222222	0.5
0.14444444444444443	0.7555555555555555	0.5
0.14444444444444443	0.7888888888888889	0.5
0.14444444444444443	0.8222222222222223	0.5
0.14444444444444443	0.8555555555555556	0.5
0.14444444444444443	0.888888888888889	0.5
0.14444444444444443	0.9222222222222223	0.5
0.14444444444444443	0.9555555555555556	0.5
0.14444444444444443	0.9888888888888889	0.5
0.17777777777777776	0.02222222222222222	0.5
0.17777777777777776	0.05555555555555555	0.5
0.17777777777777776	0.08888888888888888	0.5
0.17777777777777776	0.12222222222222223	0.5
0.17777777777777776	0.15555555555555556	0.5
0.17777777777777776	0.18888888888888888	0.5
0.17777777777777776	0.22222222222222224	0.5
0.17777777777777776	0.25555555555555554	0.5
0.17777777777777776	0.28888888888888886	0.5
0.17777777777777776	0.3222222222222222	0.5
0.17777777777777776	0.3555555555555555	0.5
0.17777777777777776	0.38888888888888884	0.5
0.17777777777777776	0.4222222222222222	0.5
0.17777777777777776	0.45555555555555555	0.5
0.17777777777777776	0.4888888888888889	0.5
0.17777777777777776	0.5222222222222223	0.5
0.17777777777777776	0.5555555555555556	0.5
0.17777777777777776	0.5888888888888889	0.5
0.17777777777777776	0.6222222222222222	0.5
0.17777777777777776	0.6555555555555556	0.5
0.17777777777777776	0.6888888888888889	0.5
0.17777777777777776	0.7222222222222222	0.5
0.17777777777777776	0.7555555555555555	0.5
0.17777777777777776	0.7888888888888889	0.5
0.17777777777777776	0.8222222222222223	0.5
0.17777777777777776	0.8555555555555556	0.5
0.17777777777777776	0.888888888888889	0.5
0.17777777777777776	0.9222222222222223	0.5
0.17777777777777776	0.9555555555555556	0.5
0.17777777777777776	0.9888888888888889	0.5
0.2111111111111111	0.02222222222222222	0.5
0.2111111111111111	0.05555555555555555	0.5
0.2111111111111111	0.08888888888888888	0.5
0.2111111111111111	0.12222222222222223	0.5
0.2111111111111111	0.15555555555555556	0.5
0.2111111111111111	0.18888888888888888	0.5
0.2111111111111111	0.22222222222222224	0.5
0.2111111111111111	0.25555555555555554	0.5
0.2111111111111111	0.28888888888888886	0.5
0.2111111111111111	0.3222222222222222	0.5
0.2111111111111111	0.3555555555555555	0.5
0.2111111111111111	0.38888888888888884	0.5
0.2111111111111111	0.4222222222222222	0.5
0.2111111111111111	0.45555555555555555	0.5
0.2111111111111111	0.4888888888888889	0.5
0.2111111111111111	0.5222222222222223	0.5
0.2111111111111111	0.5555555555555556	0.5
0.2111111111111111	0.5888888888888889	0.5
0.2111111111111111	0.6222222222222222	0.5
0.2111111111111111	0.6555555555555556	0.5
0.2111111111111111	0.6888888888888889	0.5
0.2111111111111111	0.7222222222222222	0.5
0.2111111111111111	0.7555555555555555	0.5
0.2111111111111111	0.7888888888888889	0.5
0.2111111111111111	0.8222222222222223	0.5
0.2111111111111111	0.8555555555555556	0.5
0.2111111111111111	0.888888888888889	0.5
0.2111111111111111	0.9222222222222223	0.5
0.2111111111111111	0.9555555555555556	0.5
0.2111111111111111	0.9888888888888889	0.5
0.24444444444444444	0.02222222222222222	0.5
0.24444444444444444	0.05555555555555555	0.5
0.24444444444444444	0.08888888888888888	0.5
0.24444444444444444	0.12222222222222223	0.5
0.24444444444444444	0.15555555555555556	0.5
0.24444444444444444	0.18888888888888888	0.5
0.24444444444444444	0.22222222222222224	0.5
0.24444444444444444	0.25555555555555554	0.5
0.24444444444444444	0.28888888888888886	0.5
0.24444444444444444	0.3222222222222222	0.5
0.24444444444444444	0.3555555555555555	0.5
0.24444444444444444	0.38888888888888884	0.5
0.24444444444444444	0.4222222222222222	0.5
0.24444444444444444	0.45555555555555555	0.5
0.24444444444444444	0.4888888888888889	0.5
0.24444444444444444	0.5222222222222223	0.5
0.24444444444444444	0.5555555555555556	0.5
0.24444444444444444	0.5888888888888889	0.5
0.24444444444444444	0.6222222222222222	0.5
0.24444444444444444	0.6555555555555556	0.5
0.24444444444444444	0.6888888888888889	0.5
0.24444444444444444	0.7222222222222222	0.5
0.24444444444444444	0.7555555555555555	0.5
0.24444444444444444	0.7888888888888889	0.5
0.24444444444444444	0.8222222222222223	0.5
0.24444444444444444	0.8555555555555556	0.5
0.24444444444444444	0.888888888888889	0.5
0.24444444444444444	0.9222222222222223	0.5
0.24444444444444444	0.9555555555555556	0.5
0.24444444444444444	0.9888888888888889	0.5
0.2777777777777778	0.02222222222222222	0.5
0.2777777777777778	0.05555555555555555	0.5
0.2777777777777778	0.08888888888888888	0.5
0.2777777777777778	0.12222222222222223	0.5
0.2777777777777778	0.15555555555555556	0.5
0.2777777777777778	0.18888888888888888	0.5
0.2777777777777778	0.22222222222222224	0.5
0.2777777777777778	0.25555555555555554	0.5
0.2777777777777778	0.28888888888888886	0.5
0.2777777777777778	0.3222222222222222	0.5
0.2777777777777778	0.3555555555555555	0.5
0.2777777777777778	0.38888888888888884	0.5
0.2777777777777778	0.4222222222222222	0.5
0.2777777777777778	0.45555555555555555	0.5
0.2777777777777778	0.4888888888888889	0.5
0.2777777777777778	0.5222222222222223	0.5
0.2777777777777778	0.5555555555555556	0.5
0.2777777777777778	0.5888888888888889	0.5
0.2777777777777778	0.6222222222222222	0.5
0.2777777777777778	0.6555555555555556	0.5
0.2777777777777778	0.6888888888888889	0.5
0.2777777777777778	0.7222222222222222	0.5
0.2777777777777778	0.7555555555555555	0.5
0.2777777777777778	0.7888888888888889	0.5
0.2777777777777778	0.8222222222222223	0.5
0.2777777777777778	0.8555555555555556	0.5
0.2777777777777778	0.888888888888889	0.5
0.2777777777777778	0.9222222222222223	0.5
0.2777777777777778	0.9555555555555556	0.5
0.2777777777777778	0.9888888888888889	0.5
0.3111111111111111	0.02222222222222222	0.5
0.3111111111111111	0.05555555555555555	0.5
0.3111111111111111	0.08888888888888888	0.5
0.3111111111111111	0.12222222222222223	0.5
0.3111111111111111	0.15555555555555556	0.5
0.3111111111111111	0.18888888888888888	0.5
0.3111111111111111	0.22222222222222224	0.5
0.3111111111111111	0.25555555555555554	0.5
0.3111111111111111	0.28888888888888886	0.5
0.3111111111111111	0.3222222222222222	0.5
0.3111111111111111	0.3555555555555555	0.5
0.3111111111111111	0.38888888888888884	0.5
0.3111111111111111	0.4222222222222222	0.5
0.3111111111111111	0.45555555555555555	0.5
0.3111111111111111	0.4888888888888889	0.5
0.3111111111111111	0.5222222222222223	0.5
0.3111111111111111	0.5555555555555556	0.5
0.3111111111111111	0.5888888888888889	0.5
0.3111111111111111	0.6222222222222222	0.5
0.3111111111111111	0.6555555555555556	0.5
0.3111111111111111	0.6888888888888889	0.5
0.3111111111111111	0.7222222222222222	0.5
0.3111111111111111	0.7555555555555555	0.5
0.3111111111111111	0.7888888888888889	0.5
0.3111111111111111	0.8222222222222223	0.5
0.3111111111111111	0.8555555555555556	0.5
0.3111111111111111	0.888888888888889	0.5
0.3111111111111111	0.9222222222222223	0.5
0.3111111111111111	0.9555555555555556	0.5
0.3111111111111111	0.9888888888888889	0.5
0.34444444444444444	0.02222222222222222	0.5
0.34444444444444444	0.05555555555555555	0.5
0.34444444444444444	0.08888888888888888	0.5
0.34444444444444444	0.12222222222222223	0.5
0.34444444444444444	0.15555555555555556	0.5
0.34444444444444444	0.18888888888888888	0.5
0.34444444444444444	0.22222222222222224	0.5
0.34444444444444444	0.25555555555555554	0.5
0.34444444444444444	0.28888888888888886	0.5
0.34444444444444444	0.3222222222222222	0.5
0.34444444444444444	0.3555555555555555	0.5
0.34444444444444444	0.38888888888888884	0.5
0.34444444444444444	0.4222222222222222	0.5
0.34444444444444444	0.45555555555555555	0.5
0.34444444444444444	0.4888888888888889	0.5
0.34444444444444444	0.5222222222222223	0.5
0.34444444444444444	0.5555555555555556	0.5
0.34444444444444444	0.5888888888888889	0.5
0.34444444444444444	0.6222222222222222	0.5
0.34444444444444444	0.6555555555555556	0.5
0.34444444444444444	0.6888888888888889	0.5
0.34444444444444444	0.7222222222222222	0.5
0.34444444444444444	0.7555555555555555	0.5
0.34444444444444444	0.7888888888888889	0.5
0.34444444444444444	0.8222222222222223	0.5
0.34444444444444444	0.8555555555555556	0.5
0.34444444444444444	0.888888888888889	0.5
0.34444444444444444	0.9222222222222223	0.5
0.34444444444444444	0.9555555555555556	0.5
0.34444444444444444	0.9888888888888889	0.5
0.37777777777777777	0.02222222222222222	0.5
0.37777777777777777	0.05555555555555555	0.5
0.37777777777777777	0.08888888888888888	0.5
0.37777777777777777	0.12222222222222223	0.5
0.37777777777777777	0.15555555555555556	0.5
0.37777777777777777	0.18888888888888888	0.5
0.37777777777777777	0.22222222222222224	0.5
0.37777777777777777	0.25555555555555554	0.5
0.37777777777777777	0.28888888888888886	0.5
0.37777777777777777	0.3222222222222222	0.5
0.37777777777777777	0.3555555555555555	0.5
0.37777777777777777	0.38888888888888884	0.5
0.37777777777777777	0.4222222222222222	0.5
0.37777777777777777	0.45555555555555555	0.5
0.37777777777777777	0.4888888888888889	0.5
0.37777777777777777	0.5222222222222223	0.5
0.37777777777777777	0.5555555555555556	0.5
0.37777777777777777	0.5888888888888889	0.5
0.37777777777777777	0.6222222222222222	0.5
0.37777777777777777	0.6555555555555556	0.5
0.37777777777777777	0.6888888888888889	0.5
0.37777777777777777	0.7222222222222222	0.5
0.37777777777777777	0.7555555555555555	0.5
0.37777777777777777	0.7888888888888889	0.5
0.37777777777777777	0.8222222222222223	0.5
0.37777777777777777	0.8555555555555556	0.5
0.37777777777777777	0.888888888888889	0.5
0.37777777777777777	0.9222222222222223	0.5
0.37777777777777777	0.9555555555555556	0.5
0.37777777777777777	0.9888888888888889	0.5
0.41111111111111115	0.02222222222222222	0.5
0.41111111111111115	0.05555555555555555	0.5
0.41111111111111115	0.08888888888888888	0.5
0.41111111111111115	0.12222222222222223	0.5
0.41111111111111115	0.15555555555555556	0.5
0.41111111111111115	0.18888888888888888	0.5
0.41111111111111115	0.22222222222222224	0.5
0.41111111111111115	0.25555555555555554	0.5
0.41111111111111115	0.28888888888888886	0.5
0.41111111111111115	0.3222222222222222	0.5
0.41111111111111115	0.3555555555555555	0.5
0.41111111111111115	0.38888888888888884	0.5
0.41111111111111115	0.4222222222222222	0.5
0.41111111111111115	0.45555555555555555	0.5
0.41111111111111115	0.4888888888888889	0.5
0.41111111111111115	0.5222222222222223	0.5
0.41111111111111115	0.5555555555555556	0.5
0.41111111111111115	0.5888888888888889	0.5
0.41111111111111115	0.6222222222222222	0.5
0.41111111111111115	0.6555555555555556	0.5
0.41111111111111115	0.6888888888888889	0.5
0.41111111111111115	0.7222222222222222	0.5
0.41111111111111115	0.7555555555555555	0.5
0.41111111111111115	0.7888888888888889	0.5
0.41111111111111115	0.8222222222222223	0.5
0.41111111111111115	0.8555555555555556	0.5
0.41111111111111115	0.888888888888889	0.5
0.41111111111111115	0.9222222222222223	0.5
0.41111111111111115	0.9555555555555556	0.5
0.41111111111111115	0.9888888888888889	0.5
0.4444444444444445	0.02222222222222222	0.5
0.4444444444444445	0.05555555555555555	0.5
0.4444444444444445	0.08888888888888888	0.5
0.4444444444444445	0.12222222222222223	0.5
0.4444444444444445	0.15555555555555556	0.5
0.4444444444444445	0.18888888888888888	0.5
0.4444444444444445	0.22222222222222224	0.5
0.4444444444444445	0.25555555555555554	0.5
0.4444444444444445	0.28888888888888886	0.5
0.4444444444444445	0.3222222222222222	0.5
0.4444444444444445	0.3555555555555555	0.5
0.4444444444444445	0.38888888888888884	0.5
0.4444444444444445	0.4222222222222222	0.5
0.4444444444444445	0.45555555555555555	0.5
0.4444444444444445	0.4888888888888889	0.5
0.4444444444444445	0.5222222222222223	0.5
0.4444444444444445	0.5555555555555556	0.5
0.4444444444444445	0.5888888888888889	0.5
0.4444444444444445	0.6222222222222222	0.5
0.4444444444444445	0.6555555555555556	0.5
0.4444444444444445	0.6888888888888889	0.5
0.4444444444444445	0.7222222222222222	0.5
0.4444444444444445	0.7555555555555555	0.5
0.4444444444444445	0.7888888888888889	0.5
0.4444444444444445	0.8222222222222223	0.5
0.4444444444444445	0.8555555555555556	0.5
0.4444444444444445	0.888888888888889	0.5
0.4444444444444445	0.9222222222222223	0.5
0.4444444444444445	0.9555555555555556	0.5
0.4444444444444445	0.9888888888888889	0.5
0.4777777777777778	0.02222222222222222	0.5
0.4777777777777778	0.05555555555555555	0.5
0.4777777777777778	0.08888888888888888	0.5
0.4777777777777778	0.12222222222222223	0.5
0.4777777777777778	0.15555555555555556	0.5
0.4777777777777778	0.18888888888888888	0.5
0.4777777777777778	0.22222222222222224	0.5
0.4777777777777778	0.25555555555555554	0.5
0.4777777777777778	0.28888888888888886	0.5
0.4777777777777778	0.3222222222222222	0.5
0.4777777777777778	0.3555555555555555	0.5
0.4777777777777778	0.38888888888888884	0.5
0.4777777777777778	0.4222222222222222	0.5
0.4777777777777778	0.45555555555555555	0.5
0.4777777777777778	0.4888888888888889	0.5
0.4777777777777778	0.5222222222222223	0.5
0.4777777777777778	0.5555555555555556	0.5
0.4777777777777778	0.5888888888888889	0.5
0.4777777777777778	0.6222222222222222	0.5
0.4777777777777778	0.6555555555555556	0.5
0.4777777777777778	0.6888888888888889	0.5
0.4777777777777778	0.7222222222222222	0.5
0.4777777777777778	0.7555555555555555	0.5
0.4777777777777778	0.7888888888888889	0.5
0.4777777777777778	0.8222222222222223	0.5
0.4777777777777778	0.8555555555555556	0.5
0.4777777777777778	0.888888888888889	0.5
0.4777777777777778	0.9222222222222223	0.5
0.4777777777777778	0.9555555555555556	0.5
0.4777777777777778	0.9888888888888889	0.5
0.5111111111111111	0.02222222222222222	0.5
0.5111111111111111	0.05555555555555555	0.5
0.5111111111111111	0.08888888888888888	0.5
0.5111111111111111	0.12222222222222223	0.5
0.5111111111111111	0.15555555555555556	0.5
0.5111111111111111	0.18888888888888888	0.5
0.5111111111111111	0.22222222222222224	0.5
0.5111111111111111	0.25555555555555554	0.5
0.5111111111111111	0.28888888888888886	0.5
0.5111111111111111	0.3222222222222222	0.5
0.5111111111111111	0.3555555555555555	0.5
0.5111111111111111	0.38888888888888884	0.5
0.5111111111111111	0.4222222222222222	0.5
0.5111111111111111	0.45555555555555555	0.5
0.5111111111111111	0.4888888888888889	0.5
0.5111111111111111	0.5222222222222223	0.5
0.5111111111111111	0.5555555555555556	0.5
0.5111111111111111	0.5888888888888889	0.5
0.5111111111111111	0.6222222222222222	0.5
0.5111111111111111	0.6555555555555556	0.5
0.5111111111111111	0.6888888888888889	0.5
0.5111111111111111	0.7222222222222222	0.5
0.5111111111111111	0.7555555555555555	0.5
0.5111111111111111	0.7888888888888889	0.5
0.5111111111111111	0.8222222222222223	0.5
0.5111111111111111	0.8555555555555556	0.5
0.5111111111111111	0.888888888888889	0.5
0.5111111111111111	0.9222222222222223	0.5
0.5111111111111111	0.9555555555555556	0.5
0.5111111111111111	0.9888888888888889	0.5
0.5444444444444444	0.02222222222222222	0.5
0.5444444444444444	0.05555555555555555	0.5
0.5444444444444444	0.08888888888888888	0.5
0.5444444444444444	0.12222222222222223	0.5
0.5444444444444444	0.15555555555555556	0.5
0.5444444444444444	0.18888888888888888	0.5
0.5444444444444444	0.22222222222222224	0.5
0.5444444444444444	0.25555555555555554	0.5
0.5444444444444444	0.28888888888888886	0.5
0.5444444444444444	0.3222222222222222	0.5
0.5444444444444444	0.3555555555555555	0.5
0.5444444444444444	0.38888888888888884	0.5
0.5444444444444444	0.4222222222222222	0.5
0.5444444444444444	0.45555555555555555	0.5
0.5444444444444444	0.4888888888888889	0.5
0.5444444444444444	0.5222222222222223	0.5
0.5444444444444444	0.5555555555555556	0.5
0.5444444444444444	0.5888888888888889	0.5
0.5444444444444444	0.6222222222222222	0.5
0.5444444444444444	0.6555555555555556	0.5
0.5444444444444444	0.6888888888888889	0.5
0.5444444444444444	0.7222222222222222	0.5
0.5444444444444444	0.7555555555555555	0.5
0.5444444444444444	0.7888888888888889	0.5
0.5444444444444444	0.8222222222222223	0.5
0.5444444444444444	0.8555555555555556	0.5
0.5444444444444444	0.888888888888889	0.5
0.5444444444444444	0.9222222222222223	0.5
0.5444444444444444	0.9555555555555556	0.5
0.5444444444444444	0.9888888888888889	0.5
0.5777777777777777	0.02222222222222222	0.5
0.5777777777777777	0.05555555555555555	0.5
0.5777777777777777	0.08888888888888888	0.5
0.5777777777777777	0.12222222222222223	0.5
0.5777777777777777	0.15555555555555556	0.5
0.5777777777777777	0.18888888888888888	0.5
0.5777777777777777	0.22222222222222224	0.5
0.5777777777777777	0.25555555555555554	0.5
0.5777777777777777	0.28888888888888886	0.5
0.5777777777777777	0.3222222222222222	0.5
0.5777777777777777	0.3555555555555555	0.5
0.5777777777777777	0.38888888888888884	0.5
0.5777777777777777	0.4222222222222222	0.5
0.5777777777777777	0.45555555555555555	0.5
0.5777777777777777	0.4888888888888889	0.5
0.5777777777777777	0.5222222222222223	0.5
0.5777777777777777	0.5555555555555556	0.5
0.5777777777777777	0.5888888888888889	0.5
0.5777777777777777	0.6222222222222222	0.5
0.5777777777777777	0.6555555555555556	0.5
0.5777777777777777	0.6888888888888889	0.5
0.5777777777777777	0.7222222222222222	0.5
0.5777777777777777	0.7555555555555555	0.5
0.5777777777777777	0.7888888888888889	0.5
0.5777777777777777	0.8222222222222223	0.5
0.5777777777777777	0.8555555555555556	0.5
0.5777777777777777	0.888888888888889	0.5
0.5777777777777777	0.9222222222222223	0.5
0.5777777777777777	0.9555555555555556	0.5
0.5777777777777777	0.9888888888888889	0.5
0.611111111111111	0.02222222222222222	0.5
0.611111111111111	0.05555555555555555	0.5
0.611111111111111	0.08888888888888888	0.5
0.611111111111111	0.12222222222222223	0.5
0.611111111111111	0.15555555555555556	0.5
0.611111111111111	0.18888888888888888	0.5
0.611111111111111	0.22222222222222224	0.5
0.611111111111111	0.25555555555555554	0.5
0.611111111111111	0.28888888888888886	0.5
0.611111111111111	0.3222222222222222	0.5
0.611111111111111	0.3555555555555555	0.5
0.611111111111111	0.38888888888888884	0.5
0.611111111111111	0.4222222222222222	0.5
0.611111111111111	0.45555555555555555	0.5
0.611111111111111	0.4888888888888889	0.5
0.611111111111111	0.5222222222222223	0.5
0.611111111111111	0.5555555555555556	0.5
0.611111111111111	0.5888888888888889	0.5
0.611111111111111	0.6222222222222222	0.5
0.611111111111111	0.6555555555555556	0.5
0.611111111111111	0.6888888888888889	0.5
0.611111111111111	0.7222222222222222	0.5
0.611111111111111	0.7555555555555555	0.5
0.611111111111111	0.7888888888888889	0.5
0.611111111111111	0.8222222222222223	0.5
0.611111111111111	0.8555555555555556	0.5
0.611111111111111	0.888888888888889	0.5
0.611111111111111	0.9222222222222223	0.5
0.611111111111111	0.9555555555555556	0.5
0.611111111111111	0.9888888888888889	0.5
0.6444444444444444	0.02222222222222222	0.5
0.6444444444444444	0.05555555555555555	0.5
0.6444444444444444	0.08888888888888888	0.5
0.6444444444444444	0.12222222222222223	0.5
0.6444444444444444	0.15555555555555556	0.5
0.6444444444444444	0.18888888888888888	0.5
0.6444444444444444	0.22222222222222224	0.5
0.6444444444444444	0.25555555555555554	0.5
0.6444444444444444	0.28888888888888886	0.5
0.6444444444444444	0.3222222222222222	0.5
0.6444444444444444	0.3555555555555555	0.5
0.6444444444444444	0.38888888888888884	0.5
0.6444444444444444	0.4222222222222222	0.5
0.6444444444444444	0.45555555555555555	0.5
0.6444444444444444	0.4888888888888889	0.5
0.6444444444444444	0.5222222222222223	0.5
0.6444444444444444	0.5555555555555556	0.5
0.6444444444444444	0.5888888888888889	0.5
0.6444444444444444	0.6222222222222222	0.5
0.6444444444444444	0.6555555555555556	0.5
0.6444444444444444	0.6888888888888889	0.5
0.6444444444444444	0.7222222222222222	0.5
0.6444444444444444	0.7555555555555555	0.5
0.6444444444444444	0.7888888888888889	0.5
0.6444444444444444	0.8222222222222223	0.5
0.6444444444444444	0.8555555555555556	0.5
0.6444444444444444	0.888888888888889	0.5
0.6444444444444444	0.9222222222222223	0.5
0.6444444444444444	0.9555555555555556	0.5
0.6444444444444444	0.9888888888888889	0.5
0.6777777777777777	0.02222222222222222	0.5
0.6777777777777777	0.05555555555555555	0.5
0.6777777777777777	0.08888888888888888	0.5
0.6777777777777777	0.12222222222222223	0.5
0.6777777777777777	0.15555555555555556	0.5
0.6777777777777777	0.18888888888888888	0.5
0.6777777777777777	0.22222222222222224	0.5
0.6777777777777777	0.25555555555555554	0.5
0.6777777777777777	0.28888888888888886	0.5
0.6777777777777777	0.3222222222222222	0.5
0.6777777777777777	0.3555555555555555	0.5
0.6777777777777777	0.38888888888888884	0.5
0.6777777777777777	0.4222222222222222	0.5
0.6777777777777777	0.45555555555555555	0.5
0.6777777777777777	0.4888888888888889	0.5
0.6777777777777777	0.5222222222222223	0.5
0.6777777777777777	0.5555555555555556	0.5
0.6777777777777777	0.5888888888888889	0.5
0.6777777777777777	0.6222222222222222	0.5
0.6777777777777777	0.6555555555555556	0.5
0.6777777777777777	0.6888888888888889	0.5
0.6777777777777777	0.7222222222222222	0.5
0.6777777777777777	0.7555555555555555	0.5
0.6777777777777777	0.7888888888888889	0.5
0.6777777777777777	0.8222222222222223	0.5
0.6777777777777777	0.8555555555555556	0.5
0.6777777777777777	0.888888888888889	0.5
0.6777777777777777	0.9222222222222223	0.5
0.6777777777777777	0.9555555555555556	0.5
0.6777777777777777	0.9888888888888889	0.5
0.711111111111111	0.02222222222222222	0.5
0.711111111111111	0.05555555555555555	0.5
0.711111111111111	0.08888888888888888	0.5
0.711111111111111	0.12222222222222223	0.5
0.711111111111111	0.15555555555555556	0.5
0.711111111111111	0.18888888888888888	0.5
0.711111111111111	0.22222222222222224	0.5
0.711111111111111	0.25555555555555554	0.5
0.711111111111111	0.28888888888888886	0.5
0.711111111111111	0.3222222222222222	0.5
0.711111111111111	0.3555555555555555	0.5
0.711111111111111	0.38888888888888884	0.5
0.711111111111111	0.4222222222222222	0.5
0.711111111111111	0.45555555555555555	0.5
0.711111111111111	0.4888888888888889	0.5
0.711111111111111	0.5222222222222223	0.5
0.711111111111111	0.5555555555555556	0.5
0.711111111111111	0.5888888888888889	0.5
0.711111111111111	0.6222222222222222	0.5
0.711111111111111	0.6555555555555556	0.5
0.711111111111111	0.6888888888888889	0.5
0.711111111111111	0.7222222222222222	0.5
0.711111111111111	0.7555555555555555	0.5
0.711111111111111	0.7888888888888889	0.5
0.711111111111111	0.8222222222222223	0.5
0.711111111111111	0.8555555555555556	0.5
0.711111111111111	0.888888888888889	0.5
0.711111111111111	0.9222222222222223	0.5
0.711111111111111	0.9555555555555556	0.5
0.711111111111111	0.9888888888888889	0.5
0.7444444444444444	0.02222222222222222	0.5
0.7444444444444444	0.05555555555555555	0.5
0.7444444444444444	0.08888888888888888	0.5
0.7444444444444444	0.12222222222222223	0.5
0.7444444444444444	0.15555555555555556	0.5
0.7444444444444444	0.18888888888888888	0.5
0.7444444444444444	0.22222222222222224	0.5
0.7444444444444444	0.25555555555555554	0.5
0.7444444444444444	0.28888888888888886	0.5
0.7444444444444444	0.3222222222222222	0.5
0.7444444444444444	0.3555555555555555	0.5
0.7444444444444444	0.38888888888888884	0.5
0.7444444444444444	0.4222222222222222	0.5
0.7444444444444444	0.45555555555555555	0.5
0.7444444444444444	0.4888888888888889	0.5
0.7444444444444444	0.5222222222222223	0.5
0.7444444444444444	0.5555555555555556	0.5
0.7444444444444444	0.5888888888888889	0.5
0.7444444444444444	0.6222222222222222	0.5
0.7444444444444444	0.6555555555555556	0.5
0.7444444444444444	0.6888888888888889	0.5
0.7444444444444444	0.7222222222222222	0.5
0.7444444444444444	0.7555555555555555	0.5
0.7444444444444444	0.7888888888888889	0.5
0.7444444444444444	0.8222222222222223	0.5
0.7444444444444444	0.8555555555555556	0.5
0.7444444444444444	0.888888888888889	0.5
0.7444444444444444	0.9222222222222223	0.5
0.7444444444444444	0.9555555555555556	0.5
0.7444444444444444	0.9888888888888889	0.5
0.7777777777777777	0.02222222222222222	0.5
0.7777777777777777	0.05555555555555555	0.5
0.7777777777777777	0.08888888888888888	0.5
0.7777777777777777	0.12222222222222223	0.5
0.7777777777777777	0.15555555555555556	0.5
0.7777777777777777	0.18888888888888888	0.5
0.7777777777777777	0.22222222222222224	0.5
0.7777777777777777	0.25555555555555554	0.5
0.7777777777777777	0.28888888888888886	0.5
0.7777777777777777	0.3222222222222222	0.5