POSCAR_clean_100
100
319.0	0	0
-159.5	276.2621038072359	0
0	0	14.874
Mo	S
20000	40000
Direct
0.003333333333333333	0.006666666666666666	0.25
0.006666666666666666	0.003333333333333333	0.75
0.003333333333333333	0.016666666666666666	0.25
0.006666666666666666	0.013333333333333332	0.75
0.003333333333333333	0.026666666666666665	0.25
0.006666666666666666	0.023333333333333334	0.75
0.003333333333333333	0.03666666666666667	0.25
0.006666666666666666	0.03333333333333333	0.75
0.003333333333333333	0.04666666666666667	0.25
0.006666666666666666	0.043333333333333335	0.75
0.003333333333333333	0.05666666666666667	0.25
0.006666666666666666	0.05333333333333334	0.75
0.003333333333333333	0.06666666666666667	0.25
0.006666666666666666	0.06333333333333332	0.75
0.003333333333333333	0.07666666666666667	0.25
0.006666666666666666	0.07333333333333333	0.75
0.003333333333333333	0.08666666666666667	0.25
0.006666666666666666	0.08333333333333333	0.75
0.003333333333333333	0.09666666666666666	0.25
0.006666666666666666	0.09333333333333332	0.75
0.003333333333333333	0.10666666666666667	0.25
0.006666666666666666	0.10333333333333333	0.75
0.003333333333333333	0.11666666666666667	0.25
0.006666666666666666	0.11333333333333333	0.75
0.003333333333333333	0.12666666666666665	0.25
0.006666666666666666	0.12333333333333332	0.75
0.003333333333333333	0.13666666666666666	0.25
0.006666666666666666	0.13333333333333333	0.75
0.003333333333333333	0.14666666666666667	0.25
0.006666666666666666	0.14333333333333334	0.75
0.003333333333333333	0.15666666666666665	0.25
0.006666666666666666	0.15333333333333332	0.75
0.003333333333333333	0.16666666666666666	0.25
0.006666666666666666	0.16333333333333333	0.75
0.003333333333333333	0.17666666666666667	0.25
0.006666666666666666	0.17333333333333334	0.75
0.003333333333333333	0.18666666666666665	0.25
0.006666666666666666	0.18333333333333332	0.75
0.003333333333333333	0.19666666666666666	0.25
0.006666666666666666	0.19333333333333333	0.75
0.003333333333333333	0.20666666666666667	0.25
0.006666666666666666	0.20333333333333334	0.75
0.003333333333333333	0.21666666666666665	0.25
0.006666666666666666	0.21333333333333332	0.75
0.003333333333333333	0.22666666666666666	0.25
0.006666666666666666	0.22333333333333333	0.75
0.003333333333333333	0.23666666666666666	0.25
0.006666666666666666	0.23333333333333334	0.75
0.003333333333333333	0.24666666666666665	0.25
0.006666666666666666	0.24333333333333332	0.75
0.003333333333333333	0.25666666666666665	0.25
0.006666666666666666	0.25333333333333335	0.75
0.003333333333333333	0.26666666666666666	0.25
0.006666666666666666	0.26333333333333336	0.75
0.003333333333333333	0.27666666666666667	0.25
0.006666666666666666	0.2733333333333334	0.75
0.003333333333333333	0.2866666666666667	0.25
0.006666666666666666	0.2833333333333334	0.75
0.003333333333333333	0.29666666666666663	0.25
0.006666666666666666	0.29333333333333333	0.75
0.003333333333333333	0.30666666666666664	0.25
0.006666666666666666	0.30333333333333334	0.75
0.003333333333333333	0.31666666666666665	0.25
0.006666666666666666	0.31333333333333335	0.75
0.003333333333333333	0.32666666666666666	0.25
0.006666666666666666	0.32333333333333336	0.75
0.003333333333333333	0.33666666666666667	0.25
0.006666666666666666	0.33333333333333337	0.75
0.003333333333333333	0.3466666666666667	0.25
0.006666666666666666	0.3433333333333334	0.75
0.003333333333333333	0.3566666666666667	0.25
0.006666666666666666	0.3533333333333334	0.75
0.003333333333333333	0.36666666666666664	0.25
0.006666666666666666	0.36333333333333334	0.75
0.003333333333333333	0.37666666666666665	0.25
0.006666666666666666	0.37333333333333335	0.75
0.003333333333333333	0.38666666666666666	0.25
0.006666666666666666	0.38333333333333336	0.75
0.003333333333333333	0.39666666666666667	0.25
0.006666666666666666	0.39333333333333337	0.75
0.003333333333333333	0.4066666666666667	0.25
0.006666666666666666	0.4033333333333334	0.75
0.003333333333333333	0.4166666666666667	0.25
0.006666666666666666	0.4133333333333334	0.75
0.003333333333333333	0.42666666666666664	0.25
0.006666666666666666	0.42333333333333334	0.75
0.003333333333333333	0.43666666666666665	0.25
0.006666666666666666	0.43333333333333335	0.75
0.003333333333333333	0.44666666666666666	0.25
0.006666666666666666	0.44333333333333336	0.75
0.003333333333333333	0.45666666666666667	0.25
0.006666666666666666	0.45333333333333337	0.75
0.003333333333333333	0.4666666666666667	0.25
0.006666666666666666	0.4633333333333334	0.75
0.003333333333333333	0.4766666666666667	0.25
0.006666666666666666	0.4733333333333334	0.75
0.003333333333333333	0.48666666666666664	0.25
0.006666666666666666	0.48333333333333334	0.75
0.003333333333333333	0.49666666666666665	0.25
0.006666666666666666	0.49333333333333335	0.75
0.003333333333333333	0.5066666666666667	0.25
0.006666666666666666	0.5033333333333333	0.75
0.003333333333333333	0.5166666666666667	0.25
0.006666666666666666	0.5133333333333333	0.75
0.003333333333333333	0.5266666666666667	0.25
0.006666666666666666	0.5233333333333333	0.75
0.003333333333333333	0.5366666666666667	0.25
0.006666666666666666	0.5333333333333333	0.75
0.003333333333333333	0.5466666666666667	0.25
0.006666666666666666	0.5433333333333333	0.75
0.003333333333333333	0.5566666666666668	0.25
0.006666666666666666	0.5533333333333333	0.75
0.003333333333333333	0.5666666666666668	0.25
0.006666666666666666	0.5633333333333334	0.75
0.003333333333333333	0.5766666666666668	0.25
0.006666666666666666	0.5733333333333334	0.75
0.003333333333333333	0.5866666666666667	0.25
0.006666666666666666	0.5833333333333333	0.75
0.003333333333333333	0.5966666666666667	0.25
0.006666666666666666	0.5933333333333333	0.75
0.003333333333333333	0.6066666666666667	0.25
0.006666666666666666	0.6033333333333333	0.75
0.003333333333333333	0.6166666666666667	0.25
0.006666666666666666	0.6133333333333333	0.75
0.003333333333333333	0.6266666666666667	0.25
0.006666666666666666	0.6233333333333333	0.75
0.003333333333333333	0.6366666666666667	0.25
0.006666666666666666	0.6333333333333333	0.75
0.003333333333333333	0.6466666666666667	0.25
0.006666666666666666	0.6433333333333333	0.75
0.003333333333333333	0.6566666666666667	0.25
0.006666666666666666	0.6533333333333333	0.75
0.003333333333333333	0.6666666666666667	0.25
0.006666666666666666	0.6633333333333333	0.75
0.003333333333333333	0.6766666666666667	0.25
0.006666666666666666	0.6733333333333333	0.75
0.003333333333333333	0.6866666666666668	0.25
0.006666666666666666	0.6833333333333333	0.75
0.003333333333333333	0.6966666666666668	0.25
0.006666666666666666	0.6933333333333334	0.75
0.003333333333333333	0.7066666666666668	0.25
0.006666666666666666	0.7033333333333334	0.75
0.003333333333333333	0.7166666666666667	0.25
0.006666666666666666	0.7133333333333333	0.75
0.003333333333333333	0.7266666666666667	0.25
0.006666666666666666	0.7233333333333333	0.75
0.003333333333333333	0.7366666666666667	0.25
0.006666666666666666	0.7333333333333333	0.75
0.003333333333333333	0.7466666666666667	0.25
0.006666666666666666	0.7433333333333333	0.75
0.003333333333333333	0.7566666666666667	0.25
0.006666666666666666	0.7533333333333333	0.75
0.003333333333333333	0.7666666666666667	0.25
0.006666666666666666	0.7633333333333333	0.75
0.003333333333333333	0.7766666666666667	0.25
0.006666666666666666	0.7733333333333333	0.75
0.003333333333333333	0.7866666666666667	0.25
0.006666666666666666	0.7833333333333333	0.75
0.003333333333333333	0.7966666666666667	0.25
0.006666666666666666	0.7933333333333333	0.75
0.003333333333333333	0.8066666666666668	0.25
0.006666666666666666	0.8033333333333333	0.75
0.003333333333333333	0.8166666666666668	0.25
0.006666666666666666	0.8133333333333334	0.75
0.003333333333333333	0.8266666666666668	0.25
0.006666666666666666	0.8233333333333334	0.75
0.003333333333333333	0.8366666666666668	0.25
0.006666666666666666	0.8333333333333334	0.75
0.003333333333333333	0.8466666666666667	0.25
0.006666666666666666	0.8433333333333333	0.75
0.003333333333333333	0.8566666666666667	0.25
0.006666666666666666	0.8533333333333333	0.75
0.003333333333333333	0.8666666666666667	0.25
0.006666666666666666	0.8633333333333333	0.75
0.003333333333333333	0.8766666666666667	0.25
0.006666666666666666	0.8733333333333333	0.75
0.003333333333333333	0.8866666666666667	0.25
0.006666666666666666	0.8833333333333333	0.75
0.003333333333333333	0.8966666666666667	0.25
0.006666666666666666	0.8933333333333333	0.75
0.003333333333333333	0.9066666666666667	0.25
0.006666666666666666	0.9033333333333333	0.75
0.003333333333333333	0.9166666666666667	0.25
0.006666666666666666	0.9133333333333333	0.75
0.003333333333333333	0.9266666666666667	0.25
0.006666666666666666	0.9233333333333333	0.75
0.003333333333333333	0.9366666666666668	0.25
0.006666666666666666	0.9333333333333333	0.75
0.003333333333333333	0.9466666666666668	0.25
0.006666666666666666	0.9433333333333334	0.75
0.003333333333333333	0.9566666666666668	0.25
0.006666666666666666	0.9533333333333334	0.75
0.003333333333333333	0.9666666666666667	0.25
0.006666666666666666	0.9633333333333333	0.75
0.003333333333333333	0.9766666666666667	0.25
0.006666666666666666	0.9733333333333333	0.75
0.003333333333333333	0.9866666666666667	0.25
0.006666666666666666	0.9833333333333333	0.75
0.003333333333333333	0.9966666666666667	0.25
0.006666666666666666	0.9933333333333333	0.75
0.013333333333333332	0.006666666666666666	0.25
0.016666666666666666	0.003333333333333333	0.75
0.013333333333333332	0.016666666666666666	0.25
0.016666666666666666	0.013333333333333332	0.75
0.013333333333333332	0.026666666666666665	0.25
0.016666666666666666	0.023333333333333334	0.75
0.013333333333333332	0.03666666666666667	0.25
0.016666666666666666	0.03333333333333333	0.75
0.013333333333333332	0.04666666666666667	0.25
0.016666666666666666	0.043333333333333335	0.75
0.013333333333333332	0.05666666666666667	0.25
0.016666666666666666	0.05333333333333334	0.75
0.013333333333333332	0.06666666666666667	0.25
0.016666666666666666	0.06333333333333332	0.75
0.013333333333333332	0.07666666666666667	0.25
0.016666666666666666	0.07333333333333333	0.75
0.013333333333333332	0.08666666666666667	0.25
0.016666666666666666	0.08333333333333333	0.75
0.013333333333333332	0.09666666666666666	0.25
0.016666666666666666	0.09333333333333332	0.75
0.013333333333333332	0.10666666666666667	0.25
0.016666666666666666	0.10333333333333333	0.75
0.013333333333333332	0.11666666666666667	0.25
0.016666666666666666	0.11333333333333333	0.75
0.013333333333333332	0.12666666666666665	0.25
0.016666666666666666	0.12333333333333332	0.75
0.013333333333333332	0.13666666666666666	0.25
0.016666666666666666	0.13333333333333333	0.75
0.013333333333333332	0.14666666666666667	0.25
0.016666666666666666	0.14333333333333334	0.75
0.013333333333333332	0.15666666666666665	0.25
0.016666666666666666	0.15333333333333332	0.75
0.013333333333333332	0.16666666666666666	0.25
0.016666666666666666	0.16333333333333333	0.75
0.013333333333333332	0.17666666666666667	0.25
0.016666666666666666	0.17333333333333334	0.75
0.013333333333333332	0.18666666666666665	0.25
0.016666666666666666	0.18333333333333332	0.75
0.013333333333333332	0.19666666666666666	0.25
0.016666666666666666	0.19333333333333333	0.75
0.013333333333333332	0.20666666666666667	0.25
0.016666666666666666	0.20333333333333334	0.75
0.013333333333333332	0.21666666666666665	0.25
0.016666666666666666	0.21333333333333332	0.75
0.013333333333333332	0.22666666666666666	0.25
0.016666666666666666	0.22333333333333333	0.75
0.013333333333333332	0.23666666666666666	0.25
0.016666666666666666	0.23333333333333334	0.75
0.013333333333333332	0.24666666666666665	0.25
0.016666666666666666	0.24333333333333332	0.75
0.013333333333333332	0.25666666666666665	0.25
0.016666666666666666	0.25333333333333335	0.75
0.013333333333333332	0.26666666666666666	0.25
0.016666666666666666	0.26333333333333336	0.75
0.013333333333333332	0.27666666666666667	0.25
0.016666666666666666	0.2733333333333334	0.75
0.013333333333333332	0.2866666666666667	0.25
0.016666666666666666	0.2833333333333334	0.75
0.013333333333333332	0.29666666666666663	0.25
0.016666666666666666	0.29333333333333333	0.75
0.013333333333333332	0.30666666666666664	0.25
0.016666666666666666	0.30333333333333334	0.75
0.013333333333333332	0.31666666666666665	0.25
0.016666666666666666	0.31333333333333335	0.75
0.013333333333333332	0.32666666666666666	0.25
0.016666666666666666	0.32333333333333336	0.75
0.013333333333333332	0.33666666666666667	0.25
0.016666666666666666	0.33333333333333337	0.75
0.013333333333333332	0.3466666666666667	0.25
0.016666666666666666	0.3433333333333334	0.75
0.013333333333333332	0.3566666666666667	0.25
0.016666666666666666	0.3533333333333334	0.75
0.013333333333333332	0.36666666666666664	0.25
0.016666666666666666	0.36333333333333334	0.75
0.013333333333333332	0.37666666666666665	0.25
0.016666666666666666	0.37333333333333335	0.75
0.013333333333333332	0.38666666666666666	0.25
0.016666666666666666	0.38333333333333336	0.75
0.013333333333333332	0.39666666666666667	0.25
0.016666666666666666	0.39333333333333337	0.75
0.013333333333333332	0.4066666666666667	0.25
0.016666666666666666	0.4033333333333334	0.75
0.013333333333333332	0.4166666666666667	0.25
0.016666666666666666	0.4133333333333334	0.75
0.013333333333333332	0.42666666666666664	0.25
0.016666666666666666	0.42333333333333334	0.75
0.013333333333333332	0.43666666666666665	0.25
0.016666666666666666	0.43333333333333335	0.75
0.013333333333333332	0.44666666666666666	0.25
0.016666666666666666	0.44333333333333336	0.75
0.013333333333333332	0.45666666666666667	0.25
0.016666666666666666	0.45333333333333337	0.75
0.013333333333333332	0.4666666666666667	0.25
0.016666666666666666	0.4633333333333334	0.75
0.013333333333333332	0.4766666666666667	0.25
0.016666666666666666	0.4733333333333334	0.75
0.013333333333333332	0.48666666666666664	0.25
0.016666666666666666	0.48333333333333334	0.75
0.013333333333333332	0.49666666666666665	0.25
0.016666666666666666	0.49333333333333335	0.75
0.013333333333333332	0.5066666666666667	0.25
0.016666666666666666	0.5033333333333333	0.75
0.013333333333333332	0.5166666666666667	0.25
0.016666666666666666	0.5133333333333333	0.75
0.013333333333333332	0.5266666666666667	0.25
0.016666666666666666	0.5233333333333333	0.75
0.013333333333333332	0.5366666666666667	0.25
0.016666666666666666	0.5333333333333333	0.75
0.013333333333333332	0.5466666666666667	0.25
0.016666666666666666	0.5433333333333333	0.75
0.013333333333333332	0.5566666666666668	0.25
0.016666666666666666	0.5533333333333333	0.75
0.013333333333333332	0.5666666666666668	0.25
0.016666666666666666	0.5633333333333334	0.75
0.013333333333333332	0.5766666666666668	0.25
0.016666666666666666	0.5733333333333334	0.75
0.013333333333333332	0.5866666666666667	0.25
0.016666666666666666	0.5833333333333333	0.75
0.013333333333333332	0.5966666666666667	0.25
0.016666666666666666	0.5933333333333333	0.75
0.013333333333333332	0.6066666666666667	0.25
0.016666666666666666	0.6033333333333333	0.75
0.013333333333333332	0.6166666666666667	0.25
0.016666666666666666	0.6133333333333333	0.75
0.013333333333333332	0.6266666666666667	0.25
0.016666666666666666	0.6233333333333333	0.75
0.013333333333333332	0.6366666666666667	0.25
0.016666666666666666	0.6333333333333333	0.75
0.013333333333333332	0.6466666666666667	0.25
0.016666666666666666	0.6433333333333333	0.75
0.013333333333333332	0.6566666666666667	0.25
0.016666666666666666	0.6533333333333333	0.75
0.013333333333333332	0.6666666666666667	0.25
0.016666666666666666	0.6633333333333333	0.75
0.013333333333333332	0.6766666666666667	0.25
0.016666666666666666	0.6733333333333333	0.75
0.013333333333333332	0.6866666666666668	0.25
0.016666666666666666	0.6833333333333333	0.75
0.013333333333333332	0.6966666666666668	0.25
0.016666666666666666	0.6933333333333334	0.75
0.013333333333333332	0.7066666666666668	0.25
0.016666666666666666	0.7033333333333334	0.75
0.013333333333333332	0.7166666666666667	0.25
0.016666666666666666	0.7133333333333333	0.75
0.013333333333333332	0.7266666666666667	0.25
0.016666666666666666	0.7233333333333333	0.75
0.013333333333333332	0.7366666666666667	0.25
0.016666666666666666	0.7333333333333333	0.75
0.013333333333333332	0.7466666666666667	0.25
0.016666666666666666	0.7433333333333333	0.75
0.013333333333333332	0.7566666666666667	0.25
0.016666666666666666	0.7533333333333333	0.75
0.013333333333333332	0.7666666666666667	0.25
0.016666666666666666	0.7633333333333333	0.75
0.013333333333333332	0.7766666666666667	0.25
0.016666666666666666	0.7733333333333333	0.75
0.013333333333333332	0.7866666666666667	0.25
0.016666666666666666	0.7833333333333333	0.75
0.013333333333333332	0.7966666666666667	0.25
0.016666666666666666	0.7933333333333333	0.75
0.013333333333333332	0.8066666666666668	0.25
0.016666666666666666	0.8033333333333333	0.75
0.013333333333333332	0.8166666666666668	0.25
0.016666666666666666	0.8133333333333334	0.75
0.013333333333333332	0.8266666666666668	0.25
0.016666666666666666	0.8233333333333334	0.75
0.013333333333333332	0.8366666666666668	0.25
0.016666666666666666	0.8333333333333334	0.75
0.013333333333333332	0.8466666666666667	0.25
0.016666666666666666	0.8433333333333333	0.75
0.013333333333333332	0.8566666666666667	0.25
0.016666666666666666	0.8533333333333333	0.75
0.013333333333333332	0.8666666666666667	0.25
0.016666666666666666	0.8633333333333333	0.75
0.013333333333333332	0.8766666666666667	0.25
0.016666666666666666	0.8733333333333333	0.75
0.013333333333333332	0.8866666666666667	0.25
0.016666666666666666	0.8833333333333333	0.75
0.013333333333333332	0.8966666666666667	0.25
0.016666666666666666	0.8933333333333333	0.75
0.013333333333333332	0.9066666666666667	0.25
0.016666666666666666	0.9033333333333333	0.75
0.013333333333333332	0.9166666666666667	0.25
0.016666666666666666	0.9133333333333333	0.75
0.013333333333333332	0.9266666666666667	0.25
0.016666666666666666	0.9233333333333333	0.75
0.013333333333333332	0.9366666666666668	0.25
0.016666666666666666	0.9333333333333333	0.75
0.013333333333333332	0.9466666666666668	0.25
0.016666666666666666	0.9433333333333334	0.75
0.013333333333333332	0.9566666666666668	0.25
0.016666666666666666	0.9533333333333334	0.75
0.013333333333333332	0.9666666666666667	0.25
0.016666666666666666	0.9633333333333333	0.75
0.013333333333333332	0.9766666666666667	0.25
0.016666666666666666	0.9733333333333333	0.75
0.013333333333333332	0.9866666666666667	0.25
0.016666666666666666	0.9833333333333333	0.75
0.013333333333333332	0.9966666666666667	0.25
0.016666666666666666	0.9933333333333333	0.75
0.023333333333333334	0.006666666666666666	0.25
0.026666666666666665	0.003333333333333333	0.75
0.023333333333333334	0.016666666666666666	0.25
0.026666666666666665	0.013333333333333332	0.75
0.023333333333333334	0.026666666666666665	0.25
0.026666666666666665	0.023333333333333334	0.75
0.023333333333333334	0.03666666666666667	0.25
0.026666666666666665	0.03333333333333333	0.75
0.023333333333333334	0.04666666666666667	0.25
0.026666666666666665	0.043333333333333335	0.75
0.023333333333333334	0.05666666666666667	0.25
0.026666666666666665	0.05333333333333334	0.75
0.023333333333333334	0.06666666666666667	0.25
0.026666666666666665	0.06333333333333332	0.75
0.023333333333333334	0.07666666666666667	0.25
0.026666666666666665	0.07333333333333333	0.75
0.023333333333333334	0.08666666666666667	0.25
0.026666666666666665	0.08333333333333333	0.75
0.023333333333333334	0.09666666666666666	0.25
0.026666666666666665	0.09333333333333332	0.75
0.023333333333333334	0.10666666666666667	0.25
0.026666666666666665	0.10333333333333333	0.75
0.023333333333333334	0.11666666666666667	0.25
0.026666666666666665	0.11333333333333333	0.75
0.023333333333333334	0.12666666666666665	0.25
0.026666666666666665	0.12333333333333332	0.75
0.023333333333333334	0.13666666666666666	0.25
0.026666666666666665	0.13333333333333333	0.75
0.023333333333333334	0.14666666666666667	0.25
0.026666666666666665	0.14333333333333334	0.75
0.023333333333333334	0.15666666666666665	0.25
0.026666666666666665	0.15333333333333332	0.75
0.023333333333333334	0.16666666666666666	0.25
0.026666666666666665	0.16333333333333333	0.75
0.023333333333333334	0.17666666666666667	0.25
0.026666666666666665	0.17333333333333334	0.75
0.023333333333333334	0.18666666666666665	0.25
0.026666666666666665	0.18333333333333332	0.75
0.023333333333333334	0.19666666666666666	0.25
0.026666666666666665	0.19333333333333333	0.75
0.023333333333333334	0.20666666666666667	0.25
0.026666666666666665	0.20333333333333334	0.75
0.023333333333333334	0.21666666666666665	0.25
0.026666666666666665	0.21333333333333332	0.75
0.023333333333333334	0.22666666666666666	0.25
0.026666666666666665	0.22333333333333333	0.75
0.023333333333333334	0.23666666666666666	0.25
0.026666666666666665	0.23333333333333334	0.75
0.023333333333333334	0.24666666666666665	0.25
0.026666666666666665	0.24333333333333332	0.75
0.023333333333333334	0.25666666666666665	0.25
0.026666666666666665	0.25333333333333335	0.75
0.023333333333333334	0.26666666666666666	0.25
0.026666666666666665	0.26333333333333336	0.75
0.023333333333333334	0.27666666666666667	0.25
0.026666666666666665	0.2733333333333334	0.75
0.023333333333333334	0.2866666666666667	0.25
0.026666666666666665	0.2833333333333334	0.75
0.023333333333333334	0.29666666666666663	0.25
0.026666666666666665	0.29333333333333333	0.75
0.023333333333333334	0.30666666666666664	0.25
0.026666666666666665	0.30333333333333334	0.75
0.023333333333333334	0.31666666666666665	0.25
0.026666666666666665	0.31333333333333335	0.75
0.023333333333333334	0.32666666666666666	0.25
0.026666666666666665	0.32333333333333336	0.75
0.023333333333333334	0.33666666666666667	0.25
0.026666666666666665	0.33333333333333337	0.75
0.023333333333333334	0.3466666666666667	0.25
0.026666666666666665	0.3433333333333334	0.75
0.023333333333333334	0.3566666666666667	0.25
0.026666666666666665	0.3533333333333334	0.75
0.023333333333333334	0.36666666666666664	0.25
0.026666666666666665	0.36333333333333334	0.75
0.023333333333333334	0.37666666666666665	0.25
0.026666666666666665	0.37333333333333335	0.75
0.023333333333333334	0.38666666666666666	0.25
0.026666666666666665	0.38333333333333336	0.75
0.023333333333333334	0.39666666666666667	0.25
0.026666666666666665	0.39333333333333337	0.75
0.023333333333333334	0.4066666666666667	0.25
0.026666666666666665	0.4033333333333334	0.75
0.023333333333333334	0.4166666666666667	0.25
0.026666666666666665	0.4133333333333334	0.75
0.023333333333333334	0.42666666666666664	0.25
0.026666666666666665	0.42333333333333334	0.75
0.023333333333333334	0.43666666666666665	0.25
0.026666666666666665	0.43333333333333335	0.75
0.023333333333333334	0.44666666666666666	0.25
0.026666666666666665	0.44333333333333336	0.75
0.023333333333333334	0.45666666666666667	0.25
0.026666666666666665	0.45333333333333337	0.75
0.023333333333333334	0.4666666666666667	0.25
0.026666666666666665	0.4633333333333334	0.75
0.023333333333333334	0.4766666666666667	0.25
0.026666666666666665	0.4733333333333334	0.75
0.023333333333333334	0.48666666666666664	0.25
0.026666666666666665	0.48333333333333334	0.75
0.023333333333333334	0.49666666666666665	0.25
0.026666666666666665	0.49333333333333335	0.75
0.023333333333333334	0.5066666666666667	0.25
0.026666666666666665	0.5033333333333333	0.75
0.023333333333333334	0.5166666666666667	0.25
0.026666666666666665	0.5133333333333333	0.75
0.023333333333333334	0.5266666666666667	0.25
0.026666666666666665	0.5233333333333333	0.75
0.023333333333333334	0.5366666666666667	0.25
0.026666666666666665	0.5333333333333333	0.75
0.023333333333333334	0.5466666666666667	0.25
0.026666666666666665	0.5433333333333333	0.75
0.023333333333333334	0.5566666666666668	0.25
0.026666666666666665	0.5533333333333333	0.75
0.023333333333333334	0.5666666666666668	0.25
0.026666666666666665	0.5633333333333334	0.75
0.023333333333333334	0.5766666666666668	0.25
0.026666666666666665	0.5733333333333334	0.75
0.023333333333333334	0.5866666666666667	0.25
0.026666666666666665	0.5833333333333333	0.75
0.023333333333333334	0.5966666666666667	0.25
0.026666666666666665	0.5933333333333333	0.75
0.023333333333333334	0.6066666666666667	0.25
0.026666666666666665	0.6033333333333333	0.75
0.023333333333333334	0.6166666666666667	0.25
0.026666666666666665	0.6133333333333333	0.75
0.023333333333333334	0.6266666666666667	0.25
0.026666666666666665	0.6233333333333333	0.75
0.023333333333333334	0.6366666666666667	0.25
0.026666666666666665	0.6333333333333333	0.75
0.023333333333333334	0.6466666666666667	0.25
0.026666666666666665	0.6433333333333333	0.75
0.023333333333333334	0.6566666666666667	0.25
0.026666666666666665	0.6533333333333333	0.75
0.023333333333333334	0.6666666666666667	0.25
0.026666666666666665	0.6633333333333333	0.75
0.023333333333333334	0.6766666666666667	0.25
0.026666666666666665	0.6733333333333333	0.75
0.023333333333333334	0.6866666666666668	0.25
0.026666666666666665	0.6833333333333333	0.75
0.023333333333333334	0.6966666666666668	0.25
0.026666666666666665	0.6933333333333334	0.75
0.023333333333333334	0.7066666666666668	0.25
0.026666666666666665	0.7033333333333334	0.75
0.023333333333333334	0.7166666666666667	0.25
0.026666666666666665	0.7133333333333333	0.75
0.023333333333333334	0.7266666666666667	0.25
0.026666666666666665	0.7233333333333333	0.75
0.023333333333333334	0.7366666666666667	0.25
0.026666666666666665	0.7333333333333333	0.75
0.023333333333333334	0.7466666666666667	0.25
0.026666666666666665	0.7433333333333333	0.75
0.023333333333333334	0.7566666666666667	0.25
0.026666666666666665	0.7533333333333333	0.75
0.023333333333333334	0.7666666666666667	0.25
0.026666666666666665	0.7633333333333333	0.75
0.023333333333333334	0.7766666666666667	0.25
0.026666666666666665	0.7733333333333333	0.75
0.023333333333333334	0.7866666666666667	0.25
0.026666666666666665	0.7833333333333333	0.75
0.023333333333333334	0.7966666666666667	0.25
0.026666666666666665	0.7933333333333333	0.75
0.023333333333333334	0.8066666666666668	0.25
0.026666666666666665	0.8033333333333333	0.75
0.023333333333333334	0.8166666666666668	0.25
0.026666666666666665	0.8133333333333334	0.75
0.023333333333333334	0.8266666666666668	0.25
0.026666666666666665	0.8233333333333334	0.75
0.023333333333333334	0.8366666666666668	0.25
0.026666666666666665	0.8333333333333334	0.75
0.023333333333333334	0.8466666666666667	0.25
0.026666666666666665	0.8433333333333333	0.75
0.023333333333333334	0.8566666666666667	0.25
0.026666666666666665	0.8533333333333333	0.75
0.023333333333333334	0.8666666666666667	0.25
0.026666666666666665	0.8633333333333333	0.75
0.023333333333333334	0.8766666666666667	0.25
0.026666666666666665	0.8733333333333333	0.75
0.023333333333333334	0.8866666666666667	0.25
0.026666666666666665	0.8833333333333333	0.75
0.023333333333333334	0.8966666666666667	0.25
0.026666666666666665	0.8933333333333333	0.75
0.023333333333333334	0.9066666666666667	0.25
0.026666666666666665	0.9033333333333333	0.75
0.023333333333333334	0.9166666666666667	0.25
0.026666666666666665	0.9133333333333333	0.75
0.023333333333333334	0.9266666666666667	0.25
0.026666666666666665	0.9233333333333333	0.75
0.023333333333333334	0.9366666666666668	0.25
0.026666666666666665	0.9333333333333333	0.75
0.023333333333333334	0.9466666666666668	0.25
0.026666666666666665	0.9433333333333334	0.75
0.023333333333333334	0.9566666666666668	0.25
0.026666666666666665	0.9533333333333334	0.75
0.023333333333333334	0.9666666666666667	0.25
0.026666666666666665	0.9633333333333333	0.75
0.023333333333333334	0.9766666666666667	0.25
0.026666666666666665	0.9733333333333333	0.75
0.023333333333333334	0.9866666666666667	0.25
0.026666666666666665	0.9833333333333333	0.75
0.023333333333333334	0.9966666666666667	0.25
0.026666666666666665	0.9933333333333333	0.75
0.03333333333333333	0.006666666666666666	0.25
0.03666666666666667	0.003333333333333333	0.75
0.03333333333333333	0.016666666666666666	0.25
0.03666666666666667	0.013333333333333332	0.75
0.03333333333333333	0.026666666666666665	0.25
0.03666666666666667	0.023333333333333334	0.75
0.03333333333333333	0.03666666666666667	0.25
0.03666666666666667	0.03333333333333333	0.75
0.03333333333333333	0.04666666666666667	0.25
0.03666666666666667	0.043333333333333335	0.75
0.03333333333333333	0.05666666666666667	0.25
0.03666666666666667	0.05333333333333334	0.75
0.03333333333333333	0.06666666666666667	0.25
0.03666666666666667	0.06333333333333332	0.75
0.03333333333333333	0.07666666666666667	0.25
0.03666666666666667	0.07333333333333333	0.75
0.03333333333333333	0.08666666666666667	0.25
0.03666666666666667	0.08333333333333333	0.75
0.03333333333333333	0.09666666666666666	0.25
0.03666666666666667	0.09333333333333332	0.75
0.03333333333333333	0.10666666666666667	0.25
0.03666666666666667	0.10333333333333333	0.75
0.03333333333333333	0.11666666666666667	0.25
0.03666666666666667	0.11333333333333333	0.75
0.03333333333333333	0.12666666666666665	0.25
0.03666666666666667	0.12333333333333332	0.75
0.03333333333333333	0.13666666666666666	0.25
0.03666666666666667	0.13333333333333333	0.75
0.03333333333333333	0.14666666666666667	0.25
0.03666666666666667	0.14333333333333334	0.75
0.03333333333333333	0.15666666666666665	0.25
0.03666666666666667	0.15333333333333332	0.75
0.03333333333333333	0.16666666666666666	0.25
0.03666666666666667	0.16333333333333333	0.75
0.03333333333333333	0.17666666666666667	0.25
0.03666666666666667	0.17333333333333334	0.75
0.03333333333333333	0.18666666666666665	0.25
0.03666666666666667	0.18333333333333332	0.75
0.03333333333333333	0.19666666666666666	0.25
0.03666666666666667	0.19333333333333333	0.75
0.03333333333333333	0.20666666666666667	0.25
0.03666666666666667	0.20333333333333334	0.75
0.03333333333333333	0.21666666666666665	0.25
0.03666666666666667	0.21333333333333332	0.75
0.03333333333333333	0.22666666666666666	0.25
0.03666666666666667	0.22333333333333333	0.75
0.03333333333333333	0.23666666666666666	0.25
0.03666666666666667	0.23333333333333334	0.75
0.03333333333333333	0.24666666666666665	0.25
0.03666666666666667	0.24333333333333332	0.75
0.03333333333333333	0.25666666666666665	0.25
0.03666666666666667	0.25333333333333335	0.75
0.03333333333333333	0.26666666666666666	0.25
0.03666666666666667	0.26333333333333336	0.75
0.03333333333333333	0.27666666666666667	0.25
0.03666666666666667	0.2733333333333334	0.75
0.03333333333333333	0.2866666666666667	0.25
0.03666666666666667	0.2833333333333334	0.75