POSCAR_per
20
63.8	0	0
-31.9	55.25242076144718	0
0	0	14.874
Mo	S
800	1575
Direct
0.016666666666666666	0.03333333333333333	0.25
0.03333333333333333	0.016666666666666666	0.75
0.016666666666666666	0.08333333333333334	0.25
0.03333333333333333	0.06666666666666667	0.75
0.016666666666666666	0.13333333333333333	0.25
0.03333333333333333	0.11666666666666667	0.75
0.016666666666666666	0.18333333333333335	0.25
0.03333333333333333	0.16666666666666669	0.75
0.016666666666666666	0.23333333333333334	0.25
0.03333333333333333	0.21666666666666667	0.75
0.016666666666666666	0.2833333333333333	0.25
0.03333333333333333	0.26666666666666666	0.75
0.016666666666666666	0.33333333333333337	0.25
0.03333333333333333	0.3166666666666667	0.75
0.016666666666666666	0.38333333333333336	0.25
0.03333333333333333	0.3666666666666667	0.75
0.016666666666666666	0.43333333333333335	0.25
0.03333333333333333	0.4166666666666667	0.75
0.016666666666666666	0.48333333333333334	0.25
0.03333333333333333	0.4666666666666667	0.75
0.016666666666666666	0.5333333333333333	0.25
0.03333333333333333	0.5166666666666667	0.75
0.016666666666666666	0.5833333333333334	0.25
0.03333333333333333	0.5666666666666668	0.75
0.016666666666666666	0.6333333333333334	0.25
0.03333333333333333	0.6166666666666668	0.75
0.016666666666666666	0.6833333333333333	0.25
0.03333333333333333	0.6666666666666667	0.75
0.016666666666666666	0.7333333333333334	0.25
0.03333333333333333	0.7166666666666668	0.75
0.016666666666666666	0.7833333333333333	0.25
0.03333333333333333	0.7666666666666667	0.75
0.016666666666666666	0.8333333333333334	0.25
0.03333333333333333	0.8166666666666668	0.75
0.016666666666666666	0.8833333333333334	0.25
0.03333333333333333	0.8666666666666668	0.75
0.016666666666666666	0.9333333333333333	0.25
0.03333333333333333	0.9166666666666667	0.75
0.016666666666666666	0.9833333333333334	0.25
0.03333333333333333	0.9666666666666668	0.75
0.06666666666666667	0.03333333333333333	0.25
0.08333333333333334	0.016666666666666666	0.75
0.06666666666666667	0.08333333333333334	0.25
0.08333333333333334	0.06666666666666667	0.75
0.06666666666666667	0.13333333333333333	0.25
0.08333333333333334	0.11666666666666667	0.75
0.06666666666666667	0.18333333333333335	0.25
0.08333333333333334	0.16666666666666669	0.75
0.06666666666666667	0.23333333333333334	0.25
0.08333333333333334	0.21666666666666667	0.75
0.06666666666666667	0.2833333333333333	0.25
0.08333333333333334	0.26666666666666666	0.75
0.06666666666666667	0.33333333333333337	0.25
0.08333333333333334	0.3166666666666667	0.75
0.06666666666666667	0.38333333333333336	0.25
0.08333333333333334	0.3666666666666667	0.75
0.06666666666666667	0.43333333333333335	0.25
0.08333333333333334	0.4166666666666667	0.75
0.06666666666666667	0.48333333333333334	0.25
0.08333333333333334	0.4666666666666667	0.75
0.06666666666666667	0.5333333333333333	0.25
0.08333333333333334	0.5166666666666667	0.75
0.06666666666666667	0.5833333333333334	0.25
0.08333333333333334	0.5666666666666668	0.75
0.06666666666666667	0.6333333333333334	0.25
0.08333333333333334	0.6166666666666668	0.75
0.06666666666666667	0.6833333333333333	0.25
0.08333333333333334	0.6666666666666667	0.75
0.06666666666666667	0.7333333333333334	0.25
0.08333333333333334	0.7166666666666668	0.75
0.06666666666666667	0.7833333333333333	0.25
0.08333333333333334	0.7666666666666667	0.75
0.06666666666666667	0.8333333333333334	0.25
0.08333333333333334	0.8166666666666668	0.75
0.06666666666666667	0.8833333333333334	0.25
0.08333333333333334	0.8666666666666668	0.75
0.06666666666666667	0.9333333333333333	0.25
0.08333333333333334	0.9166666666666667	0.75
0.06666666666666667	0.9833333333333334	0.25
0.08333333333333334	0.9666666666666668	0.75
0.11666666666666667	0.03333333333333333	0.25
0.13333333333333333	0.016666666666666666	0.75
0.11666666666666667	0.08333333333333334	0.25
0.13333333333333333	0.06666666666666667	0.75
0.11666666666666667	0.13333333333333333	0.25
0.13333333333333333	0.11666666666666667	0.75
0.11666666666666667	0.18333333333333335	0.25
0.13333333333333333	0.16666666666666669	0.75
0.11666666666666667	0.23333333333333334	0.25
0.13333333333333333	0.21666666666666667	0.75
0.11666666666666667	0.2833333333333333	0.25
0.13333333333333333	0.26666666666666666	0.75
0.11666666666666667	0.33333333333333337	0.25
0.13333333333333333	0.3166666666666667	0.75
0.11666666666666667	0.38333333333333336	0.25
0.13333333333333333	0.3666666666666667	0.75
0.11666666666666667	0.43333333333333335	0.25
0.13333333333333333	0.4166666666666667	0.75
0.11666666666666667	0.48333333333333334	0.25
0.13333333333333333	0.4666666666666667	0.75
0.11666666666666667	0.5333333333333333	0.25
0.13333333333333333	0.5166666666666667	0.75
0.11666666666666667	0.5833333333333334	0.25
0.13333333333333333	0.5666666666666668	0.75
0.11666666666666667	0.6333333333333334	0.25
0.13333333333333333	0.6166666666666668	0.75
0.11666666666666667	0.6833333333333333	0.25
0.13333333333333333	0.6666666666666667	0.75
0.11666666666666667	0.7333333333333334	0.25
0.13333333333333333	0.7166666666666668	0.75
0.11666666666666667	0.7833333333333333	0.25
0.13333333333333333	0.7666666666666667	0.75
0.11666666666666667	0.8333333333333334	0.25
0.13333333333333333	0.8166666666666668	0.75
0.11666666666666667	0.8833333333333334	0.25
0.13333333333333333	0.8666666666666668	0.75
0.11666666666666667	0.9333333333333333	0.25
0.13333333333333333	0.9166666666666667	0.75
0.11666666666666667	0.9833333333333334	0.25
0.13333333333333333	0.9666666666666668	0.75
0.16666666666666669	0.03333333333333333	0.25
0.18333333333333335	0.016666666666666666	0.75
0.16666666666666669	0.08333333333333334	0.25
0.18333333333333335	0.06666666666666667	0.75
0.16666666666666669	0.13333333333333333	0.25
0.18333333333333335	0.11666666666666667	0.75
0.16666666666666669	0.18333333333333335	0.25
0.18333333333333335	0.16666666666666669	0.75
0.16666666666666669	0.23333333333333334	0.25
0.18333333333333335	0.21666666666666667	0.75
0.16666666666666669	0.2833333333333333	0.25
0.18333333333333335	0.26666666666666666	0.75
0.16666666666666669	0.33333333333333337	0.25
0.18333333333333335	0.3166666666666667	0.75
0.16666666666666669	0.38333333333333336	0.25
0.18333333333333335	0.3666666666666667	0.75
0.16666666666666669	0.43333333333333335	0.25
0.18333333333333335	0.4166666666666667	0.75
0.16666666666666669	0.48333333333333334	0.25
0.18333333333333335	0.4666666666666667	0.75
0.16666666666666669	0.5333333333333333	0.25
0.18333333333333335	0.5166666666666667	0.75
0.16666666666666669	0.5833333333333334	0.25
0.18333333333333335	0.5666666666666668	0.75
0.16666666666666669	0.6333333333333334	0.25
0.18333333333333335	0.6166666666666668	0.75
0.16666666666666669	0.6833333333333333	0.25
0.18333333333333335	0.6666666666666667	0.75
0.16666666666666669	0.7333333333333334	0.25
0.18333333333333335	0.7166666666666668	0.75
0.16666666666666669	0.7833333333333333	0.25
0.18333333333333335	0.7666666666666667	0.75
0.16666666666666669	0.8333333333333334	0.25
0.18333333333333335	0.8166666666666668	0.75
0.16666666666666669	0.8833333333333334	0.25
0.18333333333333335	0.8666666666666668	0.75
0.16666666666666669	0.9333333333333333	0.25
0.18333333333333335	0.9166666666666667	0.75
0.16666666666666669	0.9833333333333334	0.25
0.18333333333333335	0.9666666666666668	0.75
0.21666666666666667	0.03333333333333333	0.25
0.23333333333333334	0.016666666666666666	0.75
0.21666666666666667	0.08333333333333334	0.25
0.23333333333333334	0.06666666666666667	0.75
0.21666666666666667	0.13333333333333333	0.25
0.23333333333333334	0.11666666666666667	0.75
0.21666666666666667	0.18333333333333335	0.25
0.23333333333333334	0.16666666666666669	0.75
0.21666666666666667	0.23333333333333334	0.25
0.23333333333333334	0.21666666666666667	0.75
0.21666666666666667	0.2833333333333333	0.25
0.23333333333333334	0.26666666666666666	0.75
0.21666666666666667	0.33333333333333337	0.25
0.23333333333333334	0.3166666666666667	0.75
0.21666666666666667	0.38333333333333336	0.25
0.23333333333333334	0.3666666666666667	0.75
0.21666666666666667	0.43333333333333335	0.25
0.23333333333333334	0.4166666666666667	0.75
0.21666666666666667	0.48333333333333334	0.25
0.23333333333333334	0.4666666666666667	0.75
0.21666666666666667	0.5333333333333333	0.25
0.23333333333333334	0.5166666666666667	0.75
0.21666666666666667	0.5833333333333334	0.25
0.23333333333333334	0.5666666666666668	0.75
0.21666666666666667	0.6333333333333334	0.25
0.23333333333333334	0.6166666666666668	0.75
0.21666666666666667	0.6833333333333333	0.25
0.23333333333333334	0.6666666666666667	0.75
0.21666666666666667	0.7333333333333334	0.25
0.23333333333333334	0.7166666666666668	0.75
0.21666666666666667	0.7833333333333333	0.25
0.23333333333333334	0.7666666666666667	0.75
0.21666666666666667	0.8333333333333334	0.25
0.23333333333333334	0.8166666666666668	0.75
0.21666666666666667	0.8833333333333334	0.25
0.23333333333333334	0.8666666666666668	0.75
0.21666666666666667	0.9333333333333333	0.25
0.23333333333333334	0.9166666666666667	0.75
0.21666666666666667	0.9833333333333334	0.25
0.23333333333333334	0.9666666666666668	0.75
0.26666666666666666	0.03333333333333333	0.25
0.2833333333333333	0.016666666666666666	0.75
0.26666666666666666	0.08333333333333334	0.25
0.2833333333333333	0.06666666666666667	0.75
0.26666666666666666	0.13333333333333333	0.25
0.2833333333333333	0.11666666666666667	0.75
0.26666666666666666	0.18333333333333335	0.25
0.2833333333333333	0.16666666666666669	0.75
0.26666666666666666	0.23333333333333334	0.25
0.2833333333333333	0.21666666666666667	0.75
0.26666666666666666	0.2833333333333333	0.25
0.2833333333333333	0.26666666666666666	0.75
0.26666666666666666	0.33333333333333337	0.25
0.2833333333333333	0.3166666666666667	0.75
0.26666666666666666	0.38333333333333336	0.25
0.2833333333333333	0.3666666666666667	0.75
0.26666666666666666	0.43333333333333335	0.25
0.2833333333333333	0.4166666666666667	0.75
0.26666666666666666	0.48333333333333334	0.25
0.2833333333333333	0.4666666666666667	0.75
0.26666666666666666	0.5333333333333333	0.25
0.2833333333333333	0.5166666666666667	0.75
0.26666666666666666	0.5833333333333334	0.25
0.2833333333333333	0.5666666666666668	0.75
0.26666666666666666	0.6333333333333334	0.25
0.2833333333333333	0.6166666666666668	0.75
0.26666666666666666	0.6833333333333333	0.25
0.2833333333333333	0.6666666666666667	0.75
0.26666666666666666	0.7333333333333334	0.25
0.2833333333333333	0.7166666666666668	0.75
0.26666666666666666	0.7833333333333333	0.25
0.2833333333333333	0.7666666666666667	0.75
0.26666666666666666	0.8333333333333334	0.25
0.2833333333333333	0.8166666666666668	0.75
0.26666666666666666	0.8833333333333334	0.25
0.2833333333333333	0.8666666666666668	0.75
0.26666666666666666	0.9333333333333333	0.25
0.2833333333333333	0.9166666666666667	0.75
0.26666666666666666	0.9833333333333334	0.25
0.2833333333333333	0.9666666666666668	0.75
0.3166666666666667	0.03333333333333333	0.25
0.33333333333333337	0.016666666666666666	0.75
0.3166666666666667	0.08333333333333334	0.25
0.33333333333333337	0.06666666666666667	0.75
0.3166666666666667	0.13333333333333333	0.25
0.33333333333333337	0.11666666666666667	0.75
0.3166666666666667	0.18333333333333335	0.25
0.33333333333333337	0.16666666666666669	0.75
0.3166666666666667	0.23333333333333334	0.25
0.33333333333333337	0.21666666666666667	0.75
0.3166666666666667	0.2833333333333333	0.25
0.33333333333333337	0.26666666666666666	0.75
0.3166666666666667	0.33333333333333337	0.25
0.33333333333333337	0.3166666666666667	0.75
0.3166666666666667	0.38333333333333336	0.25
0.33333333333333337	0.3666666666666667	0.75
0.3166666666666667	0.43333333333333335	0.25
0.33333333333333337	0.4166666666666667	0.75
0.3166666666666667	0.48333333333333334	0.25
0.33333333333333337	0.4666666666666667	0.75
0.3166666666666667	0.5333333333333333	0.25
0.33333333333333337	0.5166666666666667	0.75
0.3166666666666667	0.5833333333333334	0.25
0.33333333333333337	0.5666666666666668	0.75
0.3166666666666667	0.6333333333333334	0.25
0.33333333333333337	0.6166666666666668	0.75
0.3166666666666667	0.6833333333333333	0.25
0.33333333333333337	0.6666666666666667	0.75
0.3166666666666667	0.7333333333333334	0.25
0.33333333333333337	0.7166666666666668	0.75
0.3166666666666667	0.7833333333333333	0.25
0.33333333333333337	0.7666666666666667	0.75
0.3166666666666667	0.8333333333333334	0.25
0.33333333333333337	0.8166666666666668	0.75
0.3166666666666667	0.8833333333333334	0.25
0.33333333333333337	0.8666666666666668	0.75
0.3166666666666667	0.9333333333333333	0.25
0.33333333333333337	0.9166666666666667	0.75
0.3166666666666667	0.9833333333333334	0.25
0.33333333333333337	0.9666666666666668	0.75
0.3666666666666667	0.03333333333333333	0.25
0.38333333333333336	0.016666666666666666	0.75
0.3666666666666667	0.08333333333333334	0.25
0.38333333333333336	0.06666666666666667	0.75
0.3666666666666667	0.13333333333333333	0.25
0.38333333333333336	0.11666666666666667	0.75
0.3666666666666667	0.18333333333333335	0.25
0.38333333333333336	0.16666666666666669	0.75
0.3666666666666667	0.23333333333333334	0.25
0.38333333333333336	0.21666666666666667	0.75
0.3666666666666667	0.2833333333333333	0.25
0.38333333333333336	0.26666666666666666	0.75
0.3666666666666667	0.33333333333333337	0.25
0.38333333333333336	0.3166666666666667	0.75
0.3666666666666667	0.38333333333333336	0.25
0.38333333333333336	0.3666666666666667	0.75
0.3666666666666667	0.43333333333333335	0.25
0.38333333333333336	0.4166666666666667	0.75
0.3666666666666667	0.48333333333333334	0.25
0.38333333333333336	0.4666666666666667	0.75
0.3666666666666667	0.5333333333333333	0.25
0.38333333333333336	0.5166666666666667	0.75
0.3666666666666667	0.5833333333333334	0.25
0.38333333333333336	0.5666666666666668	0.75
0.3666666666666667	0.6333333333333334	0.25
0.38333333333333336	0.6166666666666668	0.75
0.3666666666666667	0.6833333333333333	0.25
0.38333333333333336	0.6666666666666667	0.75
0.3666666666666667	0.7333333333333334	0.25
0.38333333333333336	0.7166666666666668	0.75
0.3666666666666667	0.7833333333333333	0.25
0.38333333333333336	0.7666666666666667	0.75
0.3666666666666667	0.8333333333333334	0.25
0.38333333333333336	0.8166666666666668	0.75
0.3666666666666667	0.8833333333333334	0.25
0.38333333333333336	0.8666666666666668	0.75
0.3666666666666667	0.9333333333333333	0.25
0.38333333333333336	0.9166666666666667	0.75
0.3666666666666667	0.9833333333333334	0.25
0.38333333333333336	0.9666666666666668	0.75
0.4166666666666667	0.03333333333333333	0.25
0.43333333333333335	0.016666666666666666	0.75
0.4166666666666667	0.08333333333333334	0.25
0.43333333333333335	0.06666666666666667	0.75
0.4166666666666667	0.13333333333333333	0.25
0.43333333333333335	0.11666666666666667	0.75
0.4166666666666667	0.18333333333333335	0.25
0.43333333333333335	0.16666666666666669	0.75
0.4166666666666667	0.23333333333333334	0.25
0.43333333333333335	0.21666666666666667	0.75
0.4166666666666667	0.2833333333333333	0.25
0.43333333333333335	0.26666666666666666	0.75
0.4166666666666667	0.33333333333333337	0.25
0.43333333333333335	0.3166666666666667	0.75
0.4166666666666667	0.38333333333333336	0.25
0.43333333333333335	0.3666666666666667	0.75
0.4166666666666667	0.43333333333333335	0.25
0.43333333333333335	0.4166666666666667	0.75
0.4166666666666667	0.48333333333333334	0.25
0.43333333333333335	0.4666666666666667	0.75
0.4166666666666667	0.5333333333333333	0.25
0.43333333333333335	0.5166666666666667	0.75
0.4166666666666667	0.5833333333333334	0.25
0.43333333333333335	0.5666666666666668	0.75
0.4166666666666667	0.6333333333333334	0.25
0.43333333333333335	0.6166666666666668	0.75
0.4166666666666667	0.6833333333333333	0.25
0.43333333333333335	0.6666666666666667	0.75
0.4166666666666667	0.7333333333333334	0.25
0.43333333333333335	0.7166666666666668	0.75
0.4166666666666667	0.7833333333333333	0.25
0.43333333333333335	0.7666666666666667	0.75
0.4166666666666667	0.8333333333333334	0.25
0.43333333333333335	0.8166666666666668	0.75
0.4166666666666667	0.8833333333333334	0.25
0.43333333333333335	0.8666666666666668	0.75
0.4166666666666667	0.9333333333333333	0.25
0.43333333333333335	0.9166666666666667	0.75
0.4166666666666667	0.9833333333333334	0.25
0.43333333333333335	0.9666666666666668	0.75
0.4666666666666667	0.03333333333333333	0.25
0.48333333333333334	0.016666666666666666	0.75
0.4666666666666667	0.08333333333333334	0.25
0.48333333333333334	0.06666666666666667	0.75
0.4666666666666667	0.13333333333333333	0.25
0.48333333333333334	0.11666666666666667	0.75
0.4666666666666667	0.18333333333333335	0.25
0.48333333333333334	0.16666666666666669	0.75
0.4666666666666667	0.23333333333333334	0.25
0.48333333333333334	0.21666666666666667	0.75
0.4666666666666667	0.2833333333333333	0.25
0.48333333333333334	0.26666666666666666	0.75
0.4666666666666667	0.33333333333333337	0.25
0.48333333333333334	0.3166666666666667	0.75
0.4666666666666667	0.38333333333333336	0.25
0.48333333333333334	0.3666666666666667	0.75
0.4666666666666667	0.43333333333333335	0.25
0.48333333333333334	0.4166666666666667	0.75
0.4666666666666667	0.48333333333333334	0.25
0.48333333333333334	0.4666666666666667	0.75
0.4666666666666667	0.5333333333333333	0.25
0.48333333333333334	0.5166666666666667	0.75
0.4666666666666667	0.5833333333333334	0.25
0.48333333333333334	0.5666666666666668	0.75
0.4666666666666667	0.6333333333333334	0.25
0.48333333333333334	0.6166666666666668	0.75
0.4666666666666667	0.6833333333333333	0.25
0.48333333333333334	0.6666666666666667	0.75
0.4666666666666667	0.7333333333333334	0.25
0.48333333333333334	0.7166666666666668	0.75
0.4666666666666667	0.7833333333333333	0.25
0.48333333333333334	0.7666666666666667	0.75
0.4666666666666667	0.8333333333333334	0.25
0.48333333333333334	0.8166666666666668	0.75
0.4666666666666667	0.8833333333333334	0.25
0.48333333333333334	0.8666666666666668	0.75
0.4666666666666667	0.9333333333333333	0.25
0.48333333333333334	0.9166666666666667	0.75
0.4666666666666667	0.9833333333333334	0.25
0.48333333333333334	0.9666666666666668	0.75
0.5166666666666667	0.03333333333333333	0.25
0.5333333333333333	0.016666666666666666	0.75
0.5166666666666667	0.08333333333333334	0.25
0.5333333333333333	0.06666666666666667	0.75
0.5166666666666667	0.13333333333333333	0.25
0.5333333333333333	0.11666666666666667	0.75
0.5166666666666667	0.18333333333333335	0.25
0.5333333333333333	0.16666666666666669	0.75
0.5166666666666667	0.23333333333333334	0.25
0.5333333333333333	0.21666666666666667	0.75
0.5166666666666667	0.2833333333333333	0.25
0.5333333333333333	0.26666666666666666	0.75
0.5166666666666667	0.33333333333333337	0.25
0.5333333333333333	0.3166666666666667	0.75
0.5166666666666667	0.38333333333333336	0.25
0.5333333333333333	0.3666666666666667	0.75
0.5166666666666667	0.43333333333333335	0.25
0.5333333333333333	0.4166666666666667	0.75
0.5166666666666667	0.48333333333333334	0.25
0.5333333333333333	0.4666666666666667	0.75
0.5166666666666667	0.5333333333333333	0.25
0.5333333333333333	0.5166666666666667	0.75
0.5166666666666667	0.5833333333333334	0.25
0.5333333333333333	0.5666666666666668	0.75
0.5166666666666667	0.6333333333333334	0.25
0.5333333333333333	0.6166666666666668	0.75
0.5166666666666667	0.6833333333333333	0.25
0.5333333333333333	0.6666666666666667	0.75
0.5166666666666667	0.7333333333333334	0.25
0.5333333333333333	0.7166666666666668	0.75
0.5166666666666667	0.7833333333333333	0.25
0.5333333333333333	0.7666666666666667	0.75
0.5166666666666667	0.8333333333333334	0.25
0.5333333333333333	0.8166666666666668	0.75
0.5166666666666667	0.8833333333333334	0.25
0.5333333333333333	0.8666666666666668	0.75
0.5166666666666667	0.9333333333333333	0.25
0.5333333333333333	0.9166666666666667	0.75
0.5166666666666667	0.9833333333333334	0.25
0.5333333333333333	0.9666666666666668	0.75
0.5666666666666668	0.03333333333333333	0.25
0.5833333333333334	0.016666666666666666	0.75
0.5666666666666668	0.08333333333333334	0.25
0.5833333333333334	0.06666666666666667	0.75
0.5666666666666668	0.13333333333333333	0.25
0.5833333333333334	0.11666666666666667	0.75
0.5666666666666668	0.18333333333333335	0.25
0.5833333333333334	0.16666666666666669	0.75
0.5666666666666668	0.23333333333333334	0.25
0.5833333333333334	0.21666666666666667	0.75
0.5666666666666668	0.2833333333333333	0.25
0.5833333333333334	0.26666666666666666	0.75
0.5666666666666668	0.33333333333333337	0.25
0.5833333333333334	0.3166666666666667	0.75
0.5666666666666668	0.38333333333333336	0.25
0.5833333333333334	0.3666666666666667	0.75
0.5666666666666668	0.43333333333333335	0.25
0.5833333333333334	0.4166666666666667	0.75
0.5666666666666668	0.48333333333333334	0.25
0.5833333333333334	0.4666666666666667	0.75
0.5666666666666668	0.5333333333333333	0.25
0.5833333333333334	0.5166666666666667	0.75
0.5666666666666668	0.5833333333333334	0.25
0.5833333333333334	0.5666666666666668	0.75
0.5666666666666668	0.6333333333333334	0.25
0.5833333333333334	0.6166666666666668	0.75
0.5666666666666668	0.6833333333333333	0.25
0.5833333333333334	0.6666666666666667	0.75
0.5666666666666668	0.7333333333333334	0.25
0.5833333333333334	0.7166666666666668	0.75
0.5666666666666668	0.7833333333333333	0.25
0.5833333333333334	0.7666666666666667	0.75
0.5666666666666668	0.8333333333333334	0.25
0.5833333333333334	0.8166666666666668	0.75
0.5666666666666668	0.8833333333333334	0.25
0.5833333333333334	0.8666666666666668	0.75
0.5666666666666668	0.9333333333333333	0.25
0.5833333333333334	0.9166666666666667	0.75
0.5666666666666668	0.9833333333333334	0.25
0.5833333333333334	0.9666666666666668	0.75
0.6166666666666668	0.03333333333333333	0.25
0.6333333333333334	0.016666666666666666	0.75
0.6166666666666668	0.08333333333333334	0.25
0.6333333333333334	0.06666666666666667	0.75
0.6166666666666668	0.13333333333333333	0.25
0.6333333333333334	0.11666666666666667	0.75
0.6166666666666668	0.18333333333333335	0.25
0.6333333333333334	0.16666666666666669	0.75
0.6166666666666668	0.23333333333333334	0.25
0.6333333333333334	0.21666666666666667	0.75
0.6166666666666668	0.2833333333333333	0.25
0.6333333333333334	0.26666666666666666	0.75
0.6166666666666668	0.33333333333333337	0.25
0.6333333333333334	0.3166666666666667	0.75
0.6166666666666668	0.38333333333333336	0.25
0.6333333333333334	0.3666666666666667	0.75
0.6166666666666668	0.43333333333333335	0.25
0.6333333333333334	0.4166666666666667	0.75
0.6166666666666668	0.48333333333333334	0.25
0.6333333333333334	0.4666666666666667	0.75
0.6166666666666668	0.5333333333333333	0.25
0.6333333333333334	0.5166666666666667	0.75
0.6166666666666668	0.5833333333333334	0.25
0.6333333333333334	0.5666666666666668	0.75
0.6166666666666668	0.6333333333333334	0.25
0.6333333333333334	0.6166666666666668	0.75
0.6166666666666668	0.6833333333333333	0.25
0.6333333333333334	0.6666666666666667	0.75
0.6166666666666668	0.7333333333333334	0.25
0.6333333333333334	0.7166666666666668	0.75
0.6166666666666668	0.7833333333333333	0.25
0.6333333333333334	0.7666666666666667	0.75
0.6166666666666668	0.8333333333333334	0.25
0.6333333333333334	0.8166666666666668	0.75
0.6166666666666668	0.8833333333333334	0.25
0.6333333333333334	0.8666666666666668	0.75
0.6166666666666668	0.9333333333333333	0.25
0.6333333333333334	0.9166666666666667	0.75
0.6166666666666668	0.9833333333333334	0.25
0.6333333333333334	0.9666666666666668	0.75
0.6666666666666667	0.03333333333333333	0.25
0.6833333333333333	0.016666666666666666	0.75
0.6666666666666667	0.08333333333333334	0.25
0.6833333333333333	0.06666666666666667	0.75
0.6666666666666667	0.13333333333333333	0.25
0.6833333333333333	0.11666666666666667	0.75
0.6666666666666667	0.18333333333333335	0.25
0.6833333333333333	0.16666666666666669	0.75
0.6666666666666667	0.23333333333333334	0.25
0.6833333333333333	0.21666666666666667	0.75
0.6666666666666667	0.2833333333333333	0.25
0.6833333333333333	0.26666666666666666	0.75
0.6666666666666667	0.33333333333333337	0.25
0.6833333333333333	0.3166666666666667	0.75
0.6666666666666667	0.38333333333333336	0.25
0.6833333333333333	0.3666666666666667	0.75
0.6666666666666667	0.43333333333333335	0.25
0.6833333333333333	0.4166666666666667	0.75
0.6666666666666667	0.48333333333333334	0.25
0.6833333333333333	0.4666666666666667	0.75
0.6666666666666667	0.5333333333333333	0.25
0.6833333333333333	0.5166666666666667	0.75
0.6666666666666667	0.5833333333333334	0.25
0.6833333333333333	0.5666666666666668	0.75
0.6666666666666667	0.6333333333333334	0.25
0.6833333333333333	0.6166666666666668	0.75
0.6666666666666667	0.6833333333333333	0.25
0.6833333333333333	0.6666666666666667	0.75
0.6666666666666667	0.7333333333333334	0.25
0.6833333333333333	0.7166666666666668	0.75
0.6666666666666667	0.7833333333333333	0.25
0.6833333333333333	0.7666666666666667	0.75
0.6666666666666667	0.8333333333333334	0.25
0.6833333333333333	0.8166666666666668	0.75
0.6666666666666667	0.8833333333333334	0.25
0.6833333333333333	0.8666666666666668	0.75
0.6666666666666667	0.9333333333333333	0.25
0.6833333333333333	0.9166666666666667	0.75
0.6666666666666667	0.9833333333333334	0.25
0.6833333333333333	0.9666666666666668	0.75
0.7166666666666668	0.03333333333333333	0.25
0.7333333333333334	0.016666666666666666	0.75
0.7166666666666668	0.08333333333333334	0.25
0.7333333333333334	0.06666666666666667	0.75
0.7166666666666668	0.13333333333333333	0.25
0.7333333333333334	0.11666666666666667	0.75
0.7166666666666668	0.18333333333333335	0.25
0.7333333333333334	0.16666666666666669	0.75
0.7166666666666668	0.23333333333333334	0.25
0.7333333333333334	0.21666666666666667	0.75
0.7166666666666668	0.2833333333333333	0.25
0.7333333333333334	0.26666666666666666	0.75
0.7166666666666668	0.33333333333333337	0.25
0.7333333333333334	0.3166666666666667	0.75
0.7166666666666668	0.38333333333333336	0.25
0.7333333333333334	0.3666666666666667	0.75
0.7166666666666668	0.43333333333333335	0.25
0.7333333333333334	0.4166666666666667	0.75
0.7166666666666668	0.48333333333333334	0.25
0.7333333333333334	0.4666666666666667	0.75
0.7166666666666668	0.5333333333333333	0.25
0.7333333333333334	0.5166666666666667	0.75
0.7166666666666668	0.5833333333333334	0.25
0.7333333333333334	0.5666666666666668	0.75
0.7166666666666668	0.6333333333333334	0.25
0.7333333333333334	0.6166666666666668	0.75
0.7166666666666668	0.6833333333333333	0.25
0.7333333333333334	0.6666666666666667	0.75
0.7166666666666668	0.7333333333333334	0.25
0.7333333333333334	0.7166666666666668	0.75
0.7166666666666668	0.7833333333333333	0.25
0.7333333333333334	0.7666666666666667	0.75
0.7166666666666668	0.8333333333333334	0.25
0.7333333333333334	0.8166666666666668	0.75
0.7166666666666668	0.8833333333333334	0.25
0.7333333333333334	0.8666666666666668	0.75
0.7166666666666668	0.9333333333333333	0.25
0.7333333333333334	0.9166666666666667	0.75
0.7166666666666668	0.9833333333333334	0.25
0.7333333333333334	0.9666666666666668	0.75
0.7666666666666667	0.03333333333333333	0.25
0.7833333333333333	0.016666666666666666	0.75
0.7666666666666667	0.08333333333333334	0.25
0.7833333333333333	0.06666666666666667	0.75
0.7666666666666667	0.13333333333333333	0.25
0.7833333333333333	0.11666666666666667	0.75
0.7666666666666667	0.18333333333333335	0.25
0.7833333333333333	0.16666666666666669	0.75
0.7666666666666667	0.23333333333333334	0.25
0.7833333333333333	0.21666666666666667	0.75
0.7666666666666667	0.2833333333333333	0.25
0.7833333333333333	0.26666666666666666	0.75
0.7666666666666667	0.33333333333333337	0.25
0.7833333333333333	0.3166666666666667	0.75
0.7666666666666667	0.38333333333333336	0.25
0.7833333333333333	0.3666666666666667	0.75
0.7666666666666667	0.43333333333333335	0.25
0.7833333333333333	0.4166666666666667	0.75
0.7666666666666667	0.48333333333333334	0.25
0.7833333333333333	0.4666666666666667	0.75
0.7666666666666667	0.5333333333333333	0.25
0.7833333333333333	0.5166666666666667	0.75
0.7666666666666667	0.5833333333333334	0.25
0.7833333333333333	0.5666666666666668	0.75
0.7666666666666667	0.6333333333333334	0.25
0.7833333333333333	0.6166666666666668	0.75
0.7666666666666667	0.6833333333333333	0.25
0.7833333333333333	0.6666666666666667	0.75
0.7666666666666667	0.7333333333333334	0.25
0.7833333333333333	0.7166666666666668	0.75
0.7666666666666667	0.7833333333333333	0.25
0.7833333333333333	0.7666666666666667	0.75
0.7666666666666667	0.8333333333333334	0.25
0.7833333333333333	0.8166666666666668	0.75
0.7666666666666667	0.8833333333333334	0.25
0.7833333333333333	0.8666666666666668	0.75
0.7666666666666667	0.9333333333333333	0.25
0.7833333333333333	0.9166666666666667	0.75
0.7666666666666667	0.9833333333333334	0.25
0.7833333333333333	0.9666666666666668	0.75
0.8166666666666668	0.03333333333333333	0.25
0.8333333333333334	0.016666666666666666	0.75
0.8166666666666668	0.08333333333333334	0.25
0.8333333333333334	0.06666666666666667	0.75
0.8166666666666668	0.13333333333333333	0.25
0.8333333333333334	0.11666666666666667	0.75
0.8166666666666668	0.18333333333333335	0.25
0.8333333333333334	0.16666666666666669	0.75
0.8166666666666668	0.23333333333333334	0.25
0.8333333333333334	0.21666666666666667	0.75
0.8166666666666668	0.2833333333333333	0.25
0.8333333333333334	0.26666666666666666	0.75
0.8166666666666668	0.33333333333333337	0.25
0.8333333333333334	0.3166666666666667	0.75
0.8166666666666668	0.38333333333333336	0.25
0.8333333333333334	0.3666666666666667	0.75
0.8166666666666668	0.43333333333333335	0.25
0.8333333333333334	0.4166666666666667	0.75
0.8166666666666668	0.48333333333333334	0.25
0.8333333333333334	0.4666666666666667	0.75
0.8166666666666668	0.5333333333333333	0.25
0.8333333333333334	0.5166666666666667	0.75
0.8166666666666668	0.5833333333333334	0.25
0.8333333333333334	0.5666666666666668	0.75
0.8166666666666668	0.6333333333333334	0.25
0.8333333333333334	0.6166666666666668	0.75
0.8166666666666668	0.6833333333333333	0.25
0.8333333333333334	0.6666666666666667	0.75
0.8166666666666668	0.7333333333333334	0.25
0.8333333333333334	0.7166666666666668	0.75
0.8166666666666668	0.7833333333333333	0.25
0.8333333333333334	0.7666666666666667	0.75
0.8166666666666668	0.8333333333333334	0.25
0.8333333333333334	0.8166666666666668	0.75
0.8166666666666668	0.8833333333333334	0.25
0.8333333333333334	0.8666666666666668	0.75
0.8166666666666668	0.9333333333333333	0.25
0.8333333333333334	0.9166666666666667	0.75
0.8166666666666668	0.9833333333333334	0.25
0.8333333333333334	0.9666666666666668	0.75
0.8666666666666668	0.03333333333333333	0.25