POSCAR
10
31.9	0	0
-15.95	27.62621038072359	0
0	0	14.874
Mo	S
200	400
Direct
0.03333333333333333	0.06666666666666667	0.25
0.06666666666666667	0.03333333333333333	0.75
0.03333333333333333	0.16666666666666669	0.25
0.06666666666666667	0.13333333333333333	0.75
0.03333333333333333	0.26666666666666666	0.25
0.06666666666666667	0.23333333333333334	0.75
0.03333333333333333	0.3666666666666667	0.25
0.06666666666666667	0.33333333333333337	0.75
0.03333333333333333	0.4666666666666667	0.25
0.06666666666666667	0.43333333333333335	0.75
0.03333333333333333	0.5666666666666667	0.25
0.06666666666666667	0.5333333333333333	0.75
0.03333333333333333	0.6666666666666667	0.25
0.06666666666666667	0.6333333333333334	0.75
0.03333333333333333	0.7666666666666667	0.25
0.06666666666666667	0.7333333333333334	0.75
0.03333333333333333	0.8666666666666667	0.25
0.06666666666666667	0.8333333333333334	0.75
0.03333333333333333	0.9666666666666667	0.25
0.06666666666666667	0.9333333333333333	0.75
0.13333333333333333	0.06666666666666667	0.25
0.16666666666666669	0.03333333333333333	0.75
0.13333333333333333	0.16666666666666669	0.25
0.16666666666666669	0.13333333333333333	0.75
0.13333333333333333	0.26666666666666666	0.25
0.16666666666666669	0.23333333333333334	0.75
0.13333333333333333	0.3666666666666667	0.25
0.16666666666666669	0.33333333333333337	0.75
0.13333333333333333	0.4666666666666667	0.25
0.16666666666666669	0.43333333333333335	0.75
0.13333333333333333	0.5666666666666667	0.25
0.16666666666666669	0.5333333333333333	0.75
0.13333333333333333	0.6666666666666667	0.25
0.16666666666666669	0.6333333333333334	0.75
0.13333333333333333	0.7666666666666667	0.25
0.16666666666666669	0.7333333333333334	0.75
0.13333333333333333	0.8666666666666667	0.25
0.16666666666666669	0.8333333333333334	0.75
0.13333333333333333	0.9666666666666667	0.25
0.16666666666666669	0.9333333333333333	0.75
0.23333333333333334	0.06666666666666667	0.25
0.26666666666666666	0.03333333333333333	0.75
0.23333333333333334	0.16666666666666669	0.25
0.26666666666666666	0.13333333333333333	0.75
0.23333333333333334	0.26666666666666666	0.25
0.26666666666666666	0.23333333333333334	0.75
0.23333333333333334	0.3666666666666667	0.25
0.26666666666666666	0.33333333333333337	0.75
0.23333333333333334	0.4666666666666667	0.25
0.26666666666666666	0.43333333333333335	0.75
0.23333333333333334	0.5666666666666667	0.25
0.26666666666666666	0.5333333333333333	0.75
0.23333333333333334	0.6666666666666667	0.25
0.26666666666666666	0.6333333333333334	0.75
0.23333333333333334	0.7666666666666667	0.25
0.26666666666666666	0.7333333333333334	0.75
0.23333333333333334	0.8666666666666667	0.25
0.26666666666666666	0.8333333333333334	0.75
0.23333333333333334	0.9666666666666667	0.25
0.26666666666666666	0.9333333333333333	0.75
0.33333333333333337	0.06666666666666667	0.25
0.3666666666666667	0.03333333333333333	0.75
0.33333333333333337	0.16666666666666669	0.25
0.3666666666666667	0.13333333333333333	0.75
0.33333333333333337	0.26666666666666666	0.25
0.3666666666666667	0.23333333333333334	0.75
0.33333333333333337	0.3666666666666667	0.25
0.3666666666666667	0.33333333333333337	0.75
0.33333333333333337	0.4666666666666667	0.25
0.3666666666666667	0.43333333333333335	0.75
0.33333333333333337	0.5666666666666667	0.25
0.3666666666666667	0.5333333333333333	0.75
0.33333333333333337	0.6666666666666667	0.25
0.3666666666666667	0.6333333333333334	0.75
0.33333333333333337	0.7666666666666667	0.25
0.3666666666666667	0.7333333333333334	0.75
0.33333333333333337	0.8666666666666667	0.25
0.3666666666666667	0.8333333333333334	0.75
0.33333333333333337	0.9666666666666667	0.25
0.3666666666666667	0.9333333333333333	0.75
0.43333333333333335	0.06666666666666667	0.25
0.4666666666666667	0.03333333333333333	0.75
0.43333333333333335	0.16666666666666669	0.25
0.4666666666666667	0.13333333333333333	0.75
0.43333333333333335	0.26666666666666666	0.25
0.4666666666666667	0.23333333333333334	0.75
0.43333333333333335	0.3666666666666667	0.25
0.4666666666666667	0.33333333333333337	0.75
0.43333333333333335	0.4666666666666667	0.25
0.4666666666666667	0.43333333333333335	0.75
0.43333333333333335	0.5666666666666667	0.25
0.4666666666666667	0.5333333333333333	0.75
0.43333333333333335	0.6666666666666667	0.25
0.4666666666666667	0.6333333333333334	0.75
0.43333333333333335	0.7666666666666667	0.25
0.4666666666666667	0.7333333333333334	0.75
0.43333333333333335	0.8666666666666667	0.25
0.4666666666666667	0.8333333333333334	0.75
0.43333333333333335	0.9666666666666667	0.25
0.4666666666666667	0.9333333333333333	0.75
0.5333333333333333	0.06666666666666667	0.25
0.5666666666666667	0.03333333333333333	0.75
0.5333333333333333	0.16666666666666669	0.25
0.5666666666666667	0.13333333333333333	0.75
0.5333333333333333	0.26666666666666666	0.25
0.5666666666666667	0.23333333333333334	0.75
0.5333333333333333	0.3666666666666667	0.25
0.5666666666666667	0.33333333333333337	0.75
0.5333333333333333	0.4666666666666667	0.25
0.5666666666666667	0.43333333333333335	0.75
0.5333333333333333	0.5666666666666667	0.25
0.5666666666666667	0.5333333333333333	0.75
0.5333333333333333	0.6666666666666667	0.25
0.5666666666666667	0.6333333333333334	0.75
0.5333333333333333	0.7666666666666667	0.25
0.5666666666666667	0.7333333333333334	0.75
0.5333333333333333	0.8666666666666667	0.25
0.5666666666666667	0.8333333333333334	0.75
0.5333333333333333	0.9666666666666667	0.25
0.5666666666666667	0.9333333333333333	0.75
0.6333333333333334	0.06666666666666667	0.25
0.6666666666666667	0.03333333333333333	0.75
0.6333333333333334	0.16666666666666669	0.25
0.6666666666666667	0.13333333333333333	0.75
0.6333333333333334	0.26666666666666666	0.25
0.6666666666666667	0.23333333333333334	0.75
0.6333333333333334	0.3666666666666667	0.25
0.6666666666666667	0.33333333333333337	0.75
0.6333333333333334	0.4666666666666667	0.25
0.6666666666666667	0.43333333333333335	0.75
0.6333333333333334	0.5666666666666667	0.25
0.6666666666666667	0.5333333333333333	0.75
0.6333333333333334	0.6666666666666667	0.25
0.6666666666666667	0.6333333333333334	0.75
0.6333333333333334	0.7666666666666667	0.25
0.6666666666666667	0.7333333333333334	0.75
0.6333333333333334	0.8666666666666667	0.25
0.6666666666666667	0.8333333333333334	0.75
0.6333333333333334	0.9666666666666667	0.25
0.6666666666666667	0.9333333333333333	0.75
0.7333333333333334	0.06666666666666667	0.25
0.7666666666666667	0.03333333333333333	0.75
0.7333333333333334	0.16666666666666669	0.25
0.7666666666666667	0.13333333333333333	0.75
0.7333333333333334	0.26666666666666666	0.25
0.7666666666666667	0.23333333333333334	0.75
0.7333333333333334	0.3666666666666667	0.25
0.7666666666666667	0.33333333333333337	0.75
0.7333333333333334	0.4666666666666667	0.25
0.7666666666666667	0.43333333333333335	0.75
0.7333333333333334	0.5666666666666667	0.25
0.7666666666666667	0.5333333333333333	0.75
0.7333333333333334	0.6666666666666667	0.25
0.7666666666666667	0.6333333333333334	0.75
0.7333333333333334	0.7666666666666667	0.25
0.7666666666666667	0.7333333333333334	0.75
0.7333333333333334	0.8666666666666667	0.25
0.7666666666666667	0.8333333333333334	0.75
0.7333333333333334	0.9666666666666667	0.25
0.7666666666666667	0.9333333333333333	0.75
0.8333333333333334	0.06666666666666667	0.25
0.8666666666666667	0.03333333333333333	0.75
0.8333333333333334	0.16666666666666669	0.25
0.8666666666666667	0.13333333333333333	0.75
0.8333333333333334	0.26666666666666666	0.25
0.8666666666666667	0.23333333333333334	0.75
0.8333333333333334	0.3666666666666667	0.25
0.8666666666666667	0.33333333333333337	0.75
0.8333333333333334	0.4666666666666667	0.25
0.8666666666666667	0.43333333333333335	0.75
0.8333333333333334	0.5666666666666667	0.25
0.8666666666666667	0.5333333333333333	0.75
0.8333333333333334	0.6666666666666667	0.25
0.8666666666666667	0.6333333333333334	0.75
0.8333333333333334	0.7666666666666667	0.25
0.8666666666666667	0.7333333333333334	0.75
0.8333333333333334	0.8666666666666667	0.25
0.8666666666666667	0.8333333333333334	0.75
0.8333333333333334	0.9666666666666667	0.25
0.8666666666666667	0.9333333333333333	0.75
0.9333333333333333	0.06666666666666667	0.25
0.9666666666666667	0.03333333333333333	0.75
0.9333333333333333	0.16666666666666669	0.25
0.9666666666666667	0.13333333333333333	0.75
0.9333333333333333	0.26666666666666666	0.25
0.9666666666666667	0.23333333333333334	0.75
0.9333333333333333	0.3666666666666667	0.25
0.9666666666666667	0.33333333333333337	0.75
0.9333333333333333	0.4666666666666667	0.25
0.9666666666666667	0.43333333333333335	0.75
0.9333333333333333	0.5666666666666667	0.25
0.9666666666666667	0.5333333333333333	0.75
0.9333333333333333	0.6666666666666667	0.25
0.9666666666666667	0.6333333333333334	0.75
0.9333333333333333	0.7666666666666667	0.25
0.9666666666666667	0.7333333333333334	0.75
0.9333333333333333	0.8666666666666667	0.25
0.9666666666666667	0.8333333333333334	0.75
0.9333333333333333	0.9666666666666667	0.25
0.9666666666666667	0.9333333333333333	0.75
0.06666666666666667	0.03333333333333333	0.355174
0.03333333333333333	0.06666666666666667	0.855174
0.06666666666666667	0.03333333333333333	0.144826
0.03333333333333333	0.06666666666666667	0.644826
0.06666666666666667	0.13333333333333333	0.355174
0.03333333333333333	0.16666666666666669	0.855174
0.06666666666666667	0.13333333333333333	0.144826
0.03333333333333333	0.16666666666666669	0.644826
0.06666666666666667	0.23333333333333334	0.355174
0.03333333333333333	0.26666666666666666	0.855174
0.06666666666666667	0.23333333333333334	0.144826
0.03333333333333333	0.26666666666666666	0.644826
0.06666666666666667	0.33333333333333337	0.355174
0.03333333333333333	0.3666666666666667	0.855174
0.06666666666666667	0.33333333333333337	0.144826
0.03333333333333333	0.3666666666666667	0.644826
0.06666666666666667	0.43333333333333335	0.355174
0.03333333333333333	0.4666666666666667	0.855174
0.06666666666666667	0.43333333333333335	0.144826
0.03333333333333333	0.4666666666666667	0.644826
0.06666666666666667	0.5333333333333333	0.355174
0.03333333333333333	0.5666666666666667	0.855174
0.06666666666666667	0.5333333333333333	0.144826
0.03333333333333333	0.5666666666666667	0.644826
0.06666666666666667	0.6333333333333334	0.355174
0.03333333333333333	0.6666666666666667	0.855174
0.06666666666666667	0.6333333333333334	0.144826
0.03333333333333333	0.6666666666666667	0.644826
0.06666666666666667	0.7333333333333334	0.355174
0.03333333333333333	0.7666666666666667	0.855174
0.06666666666666667	0.7333333333333334	0.144826
0.03333333333333333	0.7666666666666667	0.644826
0.06666666666666667	0.8333333333333334	0.355174
0.03333333333333333	0.8666666666666667	0.855174
0.06666666666666667	0.8333333333333334	0.144826
0.03333333333333333	0.8666666666666667	0.644826
0.06666666666666667	0.9333333333333333	0.355174
0.03333333333333333	0.9666666666666667	0.855174
0.06666666666666667	0.9333333333333333	0.144826
0.03333333333333333	0.9666666666666667	0.644826
0.16666666666666669	0.03333333333333333	0.355174
0.13333333333333333	0.06666666666666667	0.855174
0.16666666666666669	0.03333333333333333	0.144826
0.13333333333333333	0.06666666666666667	0.644826
0.16666666666666669	0.13333333333333333	0.355174
0.13333333333333333	0.16666666666666669	0.855174
0.16666666666666669	0.13333333333333333	0.144826
0.13333333333333333	0.16666666666666669	0.644826
0.16666666666666669	0.23333333333333334	0.355174
0.13333333333333333	0.26666666666666666	0.855174
0.16666666666666669	0.23333333333333334	0.144826
0.13333333333333333	0.26666666666666666	0.644826
0.16666666666666669	0.33333333333333337	0.355174
0.13333333333333333	0.3666666666666667	0.855174
0.16666666666666669	0.33333333333333337	0.144826
0.13333333333333333	0.3666666666666667	0.644826
0.16666666666666669	0.43333333333333335	0.355174
0.13333333333333333	0.4666666666666667	0.855174
0.16666666666666669	0.43333333333333335	0.144826
0.13333333333333333	0.4666666666666667	0.644826
0.16666666666666669	0.5333333333333333	0.355174
0.13333333333333333	0.5666666666666667	0.855174
0.16666666666666669	0.5333333333333333	0.144826
0.13333333333333333	0.5666666666666667	0.644826
0.16666666666666669	0.6333333333333334	0.355174
0.13333333333333333	0.6666666666666667	0.855174
0.16666666666666669	0.6333333333333334	0.144826
0.13333333333333333	0.6666666666666667	0.644826
0.16666666666666669	0.7333333333333334	0.355174
0.13333333333333333	0.7666666666666667	0.855174
0.16666666666666669	0.7333333333333334	0.144826
0.13333333333333333	0.7666666666666667	0.644826
0.16666666666666669	0.8333333333333334	0.355174
0.13333333333333333	0.8666666666666667	0.855174
0.16666666666666669	0.8333333333333334	0.144826
0.13333333333333333	0.8666666666666667	0.644826
0.16666666666666669	0.9333333333333333	0.355174
0.13333333333333333	0.9666666666666667	0.855174
0.16666666666666669	0.9333333333333333	0.144826
0.13333333333333333	0.9666666666666667	0.644826
0.26666666666666666	0.03333333333333333	0.355174
0.23333333333333334	0.06666666666666667	0.855174
0.26666666666666666	0.03333333333333333	0.144826
0.23333333333333334	0.06666666666666667	0.644826
0.26666666666666666	0.13333333333333333	0.355174
0.23333333333333334	0.16666666666666669	0.855174
0.26666666666666666	0.13333333333333333	0.144826
0.23333333333333334	0.16666666666666669	0.644826
0.26666666666666666	0.23333333333333334	0.355174
0.23333333333333334	0.26666666666666666	0.855174
0.26666666666666666	0.23333333333333334	0.144826
0.23333333333333334	0.26666666666666666	0.644826
0.26666666666666666	0.33333333333333337	0.355174
0.23333333333333334	0.3666666666666667	0.855174
0.26666666666666666	0.33333333333333337	0.144826
0.23333333333333334	0.3666666666666667	0.644826
0.26666666666666666	0.43333333333333335	0.355174
0.23333333333333334	0.4666666666666667	0.855174
0.26666666666666666	0.43333333333333335	0.144826
0.23333333333333334	0.4666666666666667	0.644826
0.26666666666666666	0.5333333333333333	0.355174
0.23333333333333334	0.5666666666666667	0.855174
0.26666666666666666	0.5333333333333333	0.144826
0.23333333333333334	0.5666666666666667	0.644826
0.26666666666666666	0.6333333333333334	0.355174
0.23333333333333334	0.6666666666666667	0.855174
0.26666666666666666	0.6333333333333334	0.144826
0.23333333333333334	0.6666666666666667	0.644826
0.26666666666666666	0.7333333333333334	0.355174
0.23333333333333334	0.7666666666666667	0.855174
0.26666666666666666	0.7333333333333334	0.144826
0.23333333333333334	0.7666666666666667	0.644826
0.26666666666666666	0.8333333333333334	0.355174
0.23333333333333334	0.8666666666666667	0.855174
0.26666666666666666	0.8333333333333334	0.144826
0.23333333333333334	0.8666666666666667	0.644826
0.26666666666666666	0.9333333333333333	0.355174
0.23333333333333334	0.9666666666666667	0.855174
0.26666666666666666	0.9333333333333333	0.144826
0.23333333333333334	0.9666666666666667	0.644826
0.3666666666666667	0.03333333333333333	0.355174
0.33333333333333337	0.06666666666666667	0.855174
0.3666666666666667	0.03333333333333333	0.144826
0.33333333333333337	0.06666666666666667	0.644826
0.3666666666666667	0.13333333333333333	0.355174
0.33333333333333337	0.16666666666666669	0.855174
0.3666666666666667	0.13333333333333333	0.144826
0.33333333333333337	0.16666666666666669	0.644826
0.3666666666666667	0.23333333333333334	0.355174
0.33333333333333337	0.26666666666666666	0.855174
0.3666666666666667	0.23333333333333334	0.144826
0.33333333333333337	0.26666666666666666	0.644826
0.3666666666666667	0.33333333333333337	0.355174
0.33333333333333337	0.3666666666666667	0.855174
0.3666666666666667	0.33333333333333337	0.144826
0.33333333333333337	0.3666666666666667	0.644826
0.3666666666666667	0.43333333333333335	0.355174
0.33333333333333337	0.4666666666666667	0.855174
0.3666666666666667	0.43333333333333335	0.144826
0.33333333333333337	0.4666666666666667	0.644826
0.3666666666666667	0.5333333333333333	0.355174
0.33333333333333337	0.5666666666666667	0.855174
0.3666666666666667	0.5333333333333333	0.144826
0.33333333333333337	0.5666666666666667	0.644826
0.3666666666666667	0.6333333333333334	0.355174
0.33333333333333337	0.6666666666666667	0.855174
0.3666666666666667	0.6333333333333334	0.144826
0.33333333333333337	0.6666666666666667	0.644826
0.3666666666666667	0.7333333333333334	0.355174
0.33333333333333337	0.7666666666666667	0.855174
0.3666666666666667	0.7333333333333334	0.144826
0.33333333333333337	0.7666666666666667	0.644826
0.3666666666666667	0.8333333333333334	0.355174
0.33333333333333337	0.8666666666666667	0.855174
0.3666666666666667	0.8333333333333334	0.144826
0.33333333333333337	0.8666666666666667	0.644826
0.3666666666666667	0.9333333333333333	0.355174
0.33333333333333337	0.9666666666666667	0.855174
0.3666666666666667	0.9333333333333333	0.144826
0.33333333333333337	0.9666666666666667	0.644826
0.4666666666666667	0.03333333333333333	0.355174
0.43333333333333335	0.06666666666666667	0.855174
0.4666666666666667	0.03333333333333333	0.144826
0.43333333333333335	0.06666666666666667	0.644826
0.4666666666666667	0.13333333333333333	0.355174
0.43333333333333335	0.16666666666666669	0.855174
0.4666666666666667	0.13333333333333333	0.144826
0.43333333333333335	0.16666666666666669	0.644826
0.4666666666666667	0.23333333333333334	0.355174
0.43333333333333335	0.26666666666666666	0.855174
0.4666666666666667	0.23333333333333334	0.144826
0.43333333333333335	0.26666666666666666	0.644826
0.4666666666666667	0.33333333333333337	0.355174
0.43333333333333335	0.3666666666666667	0.855174
0.4666666666666667	0.33333333333333337	0.144826
0.43333333333333335	0.3666666666666667	0.644826
0.4666666666666667	0.43333333333333335	0.355174
0.43333333333333335	0.4666666666666667	0.855174
0.4666666666666667	0.43333333333333335	0.144826
0.43333333333333335	0.4666666666666667	0.644826
0.4666666666666667	0.5333333333333333	0.355174
0.43333333333333335	0.5666666666666667	0.855174
0.4666666666666667	0.5333333333333333	0.144826
0.43333333333333335	0.5666666666666667	0.644826
0.4666666666666667	0.6333333333333334	0.355174
0.43333333333333335	0.6666666666666667	0.855174
0.4666666666666667	0.6333333333333334	0.144826
0.43333333333333335	0.6666666666666667	0.644826
0.4666666666666667	0.7333333333333334	0.355174
0.43333333333333335	0.7666666666666667	0.855174
0.4666666666666667	0.7333333333333334	0.144826
0.43333333333333335	0.7666666666666667	0.644826
0.4666666666666667	0.8333333333333334	0.355174
0.43333333333333335	0.8666666666666667	0.855174
0.4666666666666667	0.8333333333333334	0.144826
0.43333333333333335	0.8666666666666667	0.644826
0.4666666666666667	0.9333333333333333	0.355174
0.43333333333333335	0.9666666666666667	0.855174
0.4666666666666667	0.9333333333333333	0.144826
0.43333333333333335	0.9666666666666667	0.644826
0.5666666666666667	0.03333333333333333	0.355174
0.5333333333333333	0.06666666666666667	0.855174
0.5666666666666667	0.03333333333333333	0.144826
0.5333333333333333	0.06666666666666667	0.644826
0.5666666666666667	0.13333333333333333	0.355174
0.5333333333333333	0.16666666666666669	0.855174
0.5666666666666667	0.13333333333333333	0.144826
0.5333333333333333	0.16666666666666669	0.644826
0.5666666666666667	0.23333333333333334	0.355174
0.5333333333333333	0.26666666666666666	0.855174
0.5666666666666667	0.23333333333333334	0.144826
0.5333333333333333	0.26666666666666666	0.644826
0.5666666666666667	0.33333333333333337	0.355174
0.5333333333333333	0.3666666666666667	0.855174
0.5666666666666667	0.33333333333333337	0.144826
0.5333333333333333	0.3666666666666667	0.644826
0.5666666666666667	0.43333333333333335	0.355174
0.5333333333333333	0.4666666666666667	0.855174
0.5666666666666667	0.43333333333333335	0.144826
0.5333333333333333	0.4666666666666667	0.644826
0.5666666666666667	0.5333333333333333	0.355174
0.5333333333333333	0.5666666666666667	0.855174
0.5666666666666667	0.5333333333333333	0.144826
0.5333333333333333	0.5666666666666667	0.644826
0.5666666666666667	0.6333333333333334	0.355174
0.5333333333333333	0.6666666666666667	0.855174
0.5666666666666667	0.6333333333333334	0.144826
0.5333333333333333	0.6666666666666667	0.644826
0.5666666666666667	0.7333333333333334	0.355174
0.5333333333333333	0.7666666666666667	0.855174
0.5666666666666667	0.7333333333333334	0.144826
0.5333333333333333	0.7666666666666667	0.644826
0.5666666666666667	0.8333333333333334	0.355174
0.5333333333333333	0.8666666666666667	0.855174
0.5666666666666667	0.8333333333333334	0.144826
0.5333333333333333	0.8666666666666667	0.644826
0.5666666666666667	0.9333333333333333	0.355174
0.5333333333333333	0.9666666666666667	0.855174
0.5666666666666667	0.9333333333333333	0.144826
0.5333333333333333	0.9666666666666667	0.644826
0.6666666666666667	0.03333333333333333	0.355174
0.6333333333333334	0.06666666666666667	0.855174
0.6666666666666667	0.03333333333333333	0.144826
0.6333333333333334	0.06666666666666667	0.644826
0.6666666666666667	0.13333333333333333	0.355174
0.6333333333333334	0.16666666666666669	0.855174
0.6666666666666667	0.13333333333333333	0.144826
0.6333333333333334	0.16666666666666669	0.644826
0.6666666666666667	0.23333333333333334	0.355174
0.6333333333333334	0.26666666666666666	0.855174
0.6666666666666667	0.23333333333333334	0.144826
0.6333333333333334	0.26666666666666666	0.644826
0.6666666666666667	0.33333333333333337	0.355174
0.6333333333333334	0.3666666666666667	0.855174
0.6666666666666667	0.33333333333333337	0.144826
0.6333333333333334	0.3666666666666667	0.644826
0.6666666666666667	0.43333333333333335	0.355174
0.6333333333333334	0.4666666666666667	0.855174
0.6666666666666667	0.43333333333333335	0.144826
0.6333333333333334	0.4666666666666667	0.644826
0.6666666666666667	0.5333333333333333	0.355174
0.6333333333333334	0.5666666666666667	0.855174
0.6666666666666667	0.5333333333333333	0.144826
0.6333333333333334	0.5666666666666667	0.644826
0.6666666666666667	0.6333333333333334	0.355174
0.6333333333333334	0.6666666666666667	0.855174
0.6666666666666667	0.6333333333333334	0.144826
0.6333333333333334	0.6666666666666667	0.644826
0.6666666666666667	0.7333333333333334	0.355174
0.6333333333333334	0.7666666666666667	0.855174
0.6666666666666667	0.7333333333333334	0.144826
0.6333333333333334	0.7666666666666667	0.644826
0.6666666666666667	0.8333333333333334	0.355174
0.6333333333333334	0.8666666666666667	0.855174
0.6666666666666667	0.8333333333333334	0.144826
0.6333333333333334	0.8666666666666667	0.644826
0.6666666666666667	0.9333333333333333	0.355174
0.6333333333333334	0.9666666666666667	0.855174
0.6666666666666667	0.9333333333333333	0.144826
0.6333333333333334	0.9666666666666667	0.644826
0.7666666666666667	0.03333333333333333	0.355174
0.7333333333333334	0.06666666666666667	0.855174
0.7666666666666667	0.03333333333333333	0.144826
0.7333333333333334	0.06666666666666667	0.644826
0.7666666666666667	0.13333333333333333	0.355174
0.7333333333333334	0.16666666666666669	0.855174
0.7666666666666667	0.13333333333333333	0.144826
0.7333333333333334	0.16666666666666669	0.644826
0.7666666666666667	0.23333333333333334	0.355174
0.7333333333333334	0.26666666666666666	0.855174
0.7666666666666667	0.23333333333333334	0.144826
0.7333333333333334	0.26666666666666666	0.644826
0.7666666666666667	0.33333333333333337	0.355174
0.7333333333333334	0.3666666666666667	0.855174
0.7666666666666667	0.33333333333333337	0.144826
0.7333333333333334	0.3666666666666667	0.644826
0.7666666666666667	0.43333333333333335	0.355174
0.7333333333333334	0.4666666666666667	0.855174
0.7666666666666667	0.43333333333333335	0.144826
0.7333333333333334	0.4666666666666667	0.644826
0.7666666666666667	0.5333333333333333	0.355174
0.7333333333333334	0.5666666666666667	0.855174
0.7666666666666667	0.5333333333333333	0.144826
0.7333333333333334	0.5666666666666667	0.644826
0.7666666666666667	0.6333333333333334	0.355174
0.7333333333333334	0.6666666666666667	0.855174
0.7666666666666667	0.6333333333333334	0.144826
0.7333333333333334	0.6666666666666667	0.644826
0.7666666666666667	0.7333333333333334	0.355174
0.7333333333333334	0.7666666666666667	0.855174
0.7666666666666667	0.7333333333333334	0.144826
0.7333333333333334	0.7666666666666667	0.644826
0.7666666666666667	0.8333333333333334	0.355174
0.7333333333333334	0.8666666666666667	0.855174
0.7666666666666667	0.8333333333333334	0.144826
0.7333333333333334	0.8666666666666667	0.644826
0.7666666666666667	0.9333333333333333	0.355174
0.7333333333333334	0.9666666666666667	0.855174
0.7666666666666667	0.9333333333333333	0.144826
0.7333333333333334	0.9666666666666667	0.644826
0.8666666666666667	0.03333333333333333	0.355174
0.8333333333333334	0.06666666666666667	0.855174
0.8666666666666667	0.03333333333333333	0.144826
0.8333333333333334	0.06666666666666667	0.644826
0.8666666666666667	0.13333333333333333	0.355174
0.8333333333333334	0.16666666666666669	0.855174
0.8666666666666667	0.13333333333333333	0.144826
0.8333333333333334	0.16666666666666669	0.644826
0.8666666666666667	0.23333333333333334	0.355174
0.8333333333333334	0.26666666666666666	0.855174
0.8666666666666667	0.23333333333333334	0.144826
0.8333333333333334	0.26666666666666666	0.644826
0.8666666666666667	0.33333333333333337	0.355174
0.8333333333333334	0.3666666666666667	0.855174
0.8666666666666667	0.33333333333333337	0.144826
0.8333333333333334	0.3666666666666667	0.644826
0.8666666666666667	0.43333333333333335	0.355174
0.8333333333333334	0.4666666666666667	0.855174
0.8666666666666667	0.43333333333333335	0.144826
0.8333333333333334	0.4666666666666667	0.644826
0.8666666666666667	0.5333333333333333	0.355174
0.8333333333333334	0.5666666666666667	0.855174
0.8666666666666667	0.5333333333333333	0.144826
0.8333333333333334	0.5666666666666667	0.644826
0.8666666666666667	0.6333333333333334	0.355174
0.8333333333333334	0.6666666666666667	0.855174
0.8666666666666667	0.6333333333333334	0.144826
0.8333333333333334	0.6666666666666667	0.644826
0.8666666666666667	0.7333333333333334	0.355174
0.8333333333333334	0.7666666666666667	0.855174
0.8666666666666667	0.7333333333333334	0.144826
0.8333333333333334	0.7666666666666667	0.644826
0.8666666666666667	0.8333333333333334	0.355174
0.8333333333333334	0.8666666666666667	0.855174
0.8666666666666667	0.8333333333333334	0.144826
0.8333333333333334	0.8666666666666667	0.644826
0.8666666666666667	0.9333333333333333	0.355174
0.8333333333333334	0.9666666666666667	0.855174
0.8666666666666667	0.9333333333333333	0.144826
0.8333333333333334	0.9666666666666667	0.644826
0.9666666666666667	0.03333333333333333	0.355174
0.9333333333333333	0.06666666666666667	0.855174
0.9666666666666667	0.03333333333333333	0.144826
0.9333333333333333	0.06666666666666667	0.644826
0.9666666666666667	0.13333333333333333	0.355174
0.9333333333333333	0.16666666666666669	0.855174
0.9666666666666667	0.13333333333333333	0.144826
0.9333333333333333	0.16666666666666669	0.644826
0.9666666666666667	0.23333333333333334	0.355174
0.9333333333333333	0.26666666666666666	0.855174
0.9666666666666667	0.23333333333333334	0.144826
0.9333333333333333	0.26666666666666666	0.644826
0.9666666666666667	0.33333333333333337	0.355174
0.9333333333333333	0.3666666666666667	0.855174
0.9666666666666667	0.33333333333333337	0.144826
0.9333333333333333	0.3666666666666667	0.644826
0.9666666666666667	0.43333333333333335	0.355174
0.9333333333333333	0.4666666666666667	0.855174
0.9666666666666667	0.43333333333333335	0.144826
0.9333333333333333	0.4666666666666667	0.644826
0.9666666666666667	0.5333333333333333	0.355174
0.9333333333333333	0.5666666666666667	0.855174
0.9666666666666667	0.5333333333333333	0.144826
0.9333333333333333	0.5666666666666667	0.644826
0.9666666666666667	0.6333333333333334	0.355174
0.9333333333333333	0.6666666666666667	0.855174
0.9666666666666667	0.6333333333333334	0.144826
0.9333333333333333	0.6666666666666667	0.644826
0.9666666666666667	0.7333333333333334	0.355174
0.9333333333333333	0.7666666666666667	0.855174
0.9666666666666667	0.7333333333333334	0.144826
0.9333333333333333	0.7666666666666667	0.644826
0.9666666666666667	0.8333333333333334	0.355174
0.9333333333333333	0.8666666666666667	0.855174
0.9666666666666667	0.8333333333333334	0.144826
0.9333333333333333	0.8666666666666667	0.644826
0.9666666666666667	0.9333333333333333	0.355174
0.9333333333333333	0.9666666666666667	0.855174
0.9666666666666667	0.9333333333333333	0.144826
0.9333333333333333	0.9666666666666667	0.644826
